! UKS B3LYP ma-def2-SVP OPT NumFreq
%basis
NewGTO Br "ma-def2-TZVP" end
end 

%scf
  maxiter 200
end

%pal 
	nprocs 16
end
* xyz 0 1
Co	-0.0225	-0.0436	0.2328
H	2.4626	-6.4138	-2.7429
H	1.4548	-4.3753	-2.1181
H	-0.0693	2.4458	1.8701
H	3.8425	3.6562	-0.9528
C	5.2550	5.1550	-5.0213
H	1.0997	3.3965	3.6380
H	5.1697	4.9525	-2.3586
C	-7.3921	5.3962	0.2328
H	3.3030	3.4395	-5.5832
H	2.7649	2.1697	4.7119
H	3.3278	0.0494	3.8445
H	1.9261	2.1840	-4.1858
H	2.1634	-0.7889	2.0447
H	-4.7641	1.9366	-1.1245
H	5.9930	5.5373	-4.5001
H	-6.6991	3.2350	-1.1660
C	-0.9593	-2.0403	1.9508
C	-0.8228	-3.4041	2.3061
H	3.7960	-8.5485	-1.3564
C	0.2532	-3.9071	1.6074
H	5.2550	-7.9289	-1.1366
H	4.5464	-7.8206	-2.5676
H	5.6193	4.5947	-5.7375
H	-8.0836	4.9812	0.7894
H	-0.0181	0.2927	-2.6630
H	-1.0740	-0.5660	-4.5360
Br	0.7802	5.1261	-2.4903
H	-2.6508	-2.2815	-4.2886
H	-3.1935	-3.0135	-2.1414
H	-2.0663	-2.1180	-0.3025
C	-3.6167	0.4951	2.1515
C	-3.1578	-0.6846	2.6581
C	-1.9066	-0.9832	2.0396
C	0.8098	-2.8459	0.8054
C	1.8951	-2.7825	-0.0829
C	2.3138	-1.5761	-0.6706
C	3.5340	-1.3389	-1.4113
C	3.5929	-0.0283	-1.7707
C	2.3618	0.6035	-1.2977
C	1.9029	1.9101	-1.5685
C	0.6455	2.3926	-1.2149
C	0.0206	3.6583	-1.6228
C	-1.2554	3.6378	-1.1833
C	-1.4802	2.4437	-0.4056
C	-2.6012	2.1227	0.3818
C	-2.6245	0.9756	1.2106
H	-5.1812	5.6007	1.7163
C	2.5711	-4.0706	-0.4579
C	3.5820	-4.6104	0.3178
C	4.1960	-5.8106	-0.0678
C	3.7758	-6.4956	-1.1900
C	0.6424	1.9591	2.2702
C	2.7556	-5.9599	-1.9630
C	1.3215	2.5235	3.3376
C	2.1525	-4.7392	-1.5873
C	2.7727	2.7770	-2.4295
C	2.3091	1.8160	3.9569
C	2.6316	0.5606	3.4498
C	3.7262	3.6071	-1.8937
C	1.9370	0.0719	2.3771
C	4.5185	4.3719	-2.7339
C	4.3774	4.3064	-4.1105
C	3.4146	3.4886	-4.6400
Br	-1.8469	-4.3765	3.5139
C	2.6037	2.7341	-3.8099
C	-3.8230	2.9794	0.3367
Br	0.8154	-5.6855	1.7545
C	-4.8463	2.6789	-0.5372
C	-5.9983	3.4558	-0.5638
C	-6.1362	4.5518	0.2776
C	-5.1067	4.8483	1.1404
C	-3.9672	4.0672	1.1823
Br	-5.1911	1.3253	2.7107
C	4.3976	-7.8144	-1.5992
Br	-4.0231	-1.6657	3.9988
N	0.0485	-1.7356	1.0693
C	-0.6709	-0.3882	-2.5543
N	-1.6213	0.0617	1.2082
C	-1.2895	-0.8993	-3.6738
C	-2.2275	-1.9033	-3.5266
N	0.9556	0.7487	1.7797
C	-2.5345	-2.3429	-2.2683
C	-1.8678	-1.7929	-1.1716
H	4.7201	5.8767	-5.4094
H	-7.1952	6.2939	0.5726
H	-7.7115	5.4596	-0.6909
Br	4.9196	-2.5349	-1.8264
Br	5.0761	0.7031	-2.6438
Br	-2.4553	5.0262	-1.5960
N	1.6502	-0.3554	-0.6235
N	-0.2957	1.7056	-0.4909
N	-0.9624	-0.8237	-1.3099
H	3.8611	-4.1667	1.1115
H	4.9123	-6.1582	0.4523
H	-3.2756	4.2778	1.7995
*