! UKS B3LYP ma-def2-SVP OPT NumFreq
%basis
NewGTO Br "ma-def2-TZVP" end
NewGTO Ir "ma-def2-TZVP" end
end 

%scf
  maxiter 200
end

%pal 
	nprocs 16
end
* xyz 0 1
Br	1.7810	1.5950	-5.6880
Br	1.2196	2.3393	4.9837
Br	-2.6958	-2.4103	4.3247
Br	-3.4573	-4.3334	1.6799
Br	-2.2199	-3.6883	-4.4474
Br	-0.3950	-1.2463	-6.0383
N	1.0041	1.0345	-1.7504
N	0.7139	1.1697	1.0970
N	-1.0813	-1.1219	0.7984
N	-0.5486	-0.9031	-2.0106
N	1.7325	-1.2936	-0.1497
N	-1.7072	1.3791	-0.5905
F	6.4080	4.8671	-0.4028
F	4.8803	2.6501	-0.3796
F	-2.5211	1.2450	4.4419
F	1.2967	-1.5152	4.5147
F	-4.6102	-7.4757	-1.8673
F	-1.9467	-7.4921	-1.4444
F	-0.6314	-5.1613	-0.9958
C	2.9021	3.9251	-0.3461
C	2.3402	5.1935	-0.3079
C	3.1210	6.3290	-0.2751
C	4.4844	6.2234	-0.3397
C	5.0767	4.9698	-0.3799
C	4.2792	3.8553	-0.3740
C	-4.6469	-5.1249	-1.7353
Br	3.2611	3.8968	-3.5490
Br	2.9625	4.1497	2.7593
F	1.0126	5.3240	-0.2506
F	2.5473	7.5401	-0.1549
F	5.2419	7.3205	-0.3281
C	-1.7007	0.4477	6.4789
C	-0.7736	-0.2909	7.1873
C	0.2291	-0.9515	6.5057
F	-4.6545	-2.7994	-1.5810
F	-5.9619	-5.1298	-1.9625
F	-2.7004	1.0554	7.1307
F	-0.8379	-0.3662	8.5159
F	1.1293	-1.6618	7.2018
H	2.6771	-2.7934	-1.1519
H	1.0847	-2.8330	-1.3146
H	1.9455	-1.7513	-2.1220
H	3.7514	-1.1771	-0.0249
H	3.1021	0.0044	-0.8872
H	3.0023	0.0312	0.7095
H	1.5456	-1.5032	1.8546
H	0.8707	-2.6962	1.0296
H	2.4627	-2.6297	1.1854
H	-2.2525	1.3738	1.3683
H	-1.2870	2.5911	0.9865
H	-2.8284	2.6269	0.5575
H	-2.7456	0.2447	-1.9036
H	-3.1275	-0.0442	-0.3778
H	-3.6627	1.2805	-1.0983
H	-2.2853	3.0143	-1.6407
H	-0.7277	3.0169	-1.2747
H	-1.2717	2.0720	-2.4454
Ir	0.0112	0.0429	-0.3841
C	0.8209	0.6608	-3.0612
C	1.5724	1.5921	-3.8363
C	2.1604	2.5017	-2.9723
C	1.7768	2.1427	-1.6264
C	2.0455	2.7064	-0.3478
C	1.5581	2.2415	0.9012
C	1.8360	2.7561	2.2402
C	1.1554	2.0032	3.1419
C	0.4102	0.9784	2.4246
C	-0.4598	-0.0171	2.9105
C	-1.1791	-0.9867	2.1616
C	-2.0440	-2.0461	2.6079
C	-2.3921	-2.8009	1.5273
C	-1.7892	-2.2228	0.3483
C	-1.8767	-2.6513	-1.0014
C	-1.3036	-2.0231	-2.1308
C	-1.3247	-2.3143	-3.5453
C	-0.5767	-1.3540	-4.1899
C	-0.0548	-0.4521	-3.2025
C	-0.5948	-0.1128	4.3961
C	-1.5989	0.5287	5.1055
C	0.3013	-0.8609	5.1391
C	-2.6064	-3.9218	-1.2705
C	-3.9611	-3.9529	-1.5411
C	-3.9548	-6.3238	-1.6890
C	-2.6083	-6.3257	-1.4673
C	-1.9425	-5.1414	-1.2504
C	1.8722	-2.2499	-1.2810
C	3.0040	-0.5461	-0.0830
C	1.6453	-2.0978	1.0834
C	-2.0479	2.0502	0.6890
C	-2.9111	0.6539	-1.0303
C	-1.4786	2.4618	-1.5701
*