! UKS B3LYP ma-def2-SVP OPT NumFreq
%basis

end 

%scf
  maxiter 200
end

%pal 
	nprocs 16
end
* xyz 0 1
H	-2.1269	-1.2386	4.6640
C	2.0363	2.6852	-0.1460
C	3.1420	1.9040	-0.3050
H	-1.8573	-1.4021	3.0809
H	-0.5781	-5.7052	-1.3721
H	-2.8999	-4.8651	-0.9773
C	2.7477	0.5439	-0.3812
H	-1.0685	0.9358	3.4130
C	3.5465	-0.5836	-0.5968
H	-2.5830	0.5937	3.0218
C	3.0531	-1.8936	-0.7328
H	-2.1943	0.8750	4.5480
C	3.6770	-3.1275	-1.1189
C	2.6788	-4.0881	-1.2588
C	1.4656	-3.4590	-0.9380
F	5.4051	-0.7592	1.5496
F	8.0209	-0.1271	1.3193
Mn	0.2351	-1.0322	-0.1697
C	-0.8219	-4.8233	-1.1199
H	-4.5864	0.3656	-0.0376
H	-3.3072	2.4943	0.1040
C	5.0293	-0.3221	-0.7271
C	7.7312	0.2937	-0.9777
C	6.9066	0.3739	-2.0740
C	0.7055	-1.0337	3.1012
C	5.5671	0.0694	-1.9354
C	-1.6293	-0.8775	3.8886
C	-1.8874	0.4834	3.7040
N	1.3508	0.5058	-0.2764
N	1.7280	-2.1410	-0.6205
C	0.0587	-3.7448	-0.8961
C	-2.1011	-4.3569	-0.9029
C	-2.0165	-2.9781	-0.5485
C	-2.9874	-1.9833	-0.3140
C	-2.7163	-0.6285	-0.1598
C	-3.6399	0.4473	-0.0530
F	9.0320	0.5997	-1.0805
C	-2.9386	1.6234	0.0239
F	7.4186	0.7503	-3.2506
C	-1.5461	1.2878	-0.0403
F	4.8099	0.1580	-3.0252
C	-0.4562	2.1792	-0.0079
C	0.8976	1.8055	-0.1429
O	0.2465	-1.1763	1.9972
O	-0.0675	-0.8695	4.1545
H	2.6702	-1.0029	2.6641
H	2.3389	-0.4935	4.1447
H	2.2887	-2.0559	3.8078
C	-4.4301	-2.4166	-0.2795
C	-5.1214	-2.4942	0.9142
F	-0.9796	3.5101	2.4407
C	-6.4623	-2.8405	0.9622
F	-1.4185	6.1604	2.6411
C	-7.1377	-3.1267	-0.2011
C	-6.4780	-3.0690	-1.3729
C	-5.1386	-2.7116	-1.4139
H	2.7950	-4.9943	-1.5197
C	-0.7330	3.6336	0.1100
C	-0.9696	4.2620	1.3041
C	-1.1962	5.5993	1.4398
C	-1.1861	6.3820	0.3069
C	-0.9481	5.8182	-0.9069
C	-0.7315	4.4653	-1.0093
N	-0.6871	-2.6531	-0.5330
N	-1.4342	-0.0704	-0.1517
H	2.0206	3.6309	-0.0553
H	4.0355	2.2206	-0.3568
H	4.6077	-3.2647	-1.2560
C	2.1166	-1.1550	3.4591
F	-1.3984	7.7071	0.4029
F	-4.5119	-2.2368	2.0752
F	-7.0976	-2.9382	2.1513
F	-8.4414	-3.4521	-0.1430
F	-7.1435	-3.3122	-2.5315
F	-4.5362	-2.6603	-2.6209
F	-0.8907	6.6009	-2.0160
F	-0.5264	3.9354	-2.2277
C	5.8683	-0.4122	0.3466
C	7.2236	-0.0788	0.2485
*