! UKS B3LYP ma-def2-SVP OPT NumFreq
%basis

end 

%scf
  maxiter 200
end

%pal 
	nprocs 16
end
* xyz 0 1
C	-4.6331	-0.6686	-3.7066
C	1.2500	3.1458	1.3337
C	-3.7867	-0.3760	-2.6522
H	-2.0959	-3.3504	-1.1813
N	1.7220	-0.5711	2.1190
H	2.4856	-7.2291	0.5593
H	1.8552	-5.0504	-0.0007
H	1.9496	-4.0730	3.9198
O	-5.0537	-1.7458	-5.7466
H	2.5569	-6.2606	4.4576
C	-1.4005	6.9913	0.3088
H	2.0849	4.7705	2.4603
H	2.9230	-7.8032	2.7611
C	2.0493	3.8307	2.3235
C	2.7300	2.8887	3.0140
C	0.4204	-2.6589	0.6466
H	3.3299	3.0350	3.7362
C	-0.5446	-3.6031	0.1524
C	2.3901	1.6187	2.4446
H	4.4690	-0.2718	3.7149
C	2.6681	0.2401	2.6956
C	-0.9726	-1.5884	-0.7366
H	-2.5962	-2.6390	-5.3519
C	3.7054	-0.5777	3.2392
C	2.3901	-6.5775	1.2451
H	-0.4618	8.7467	-0.1160
C	1.8395	-4.3367	1.8977
C	2.0125	-5.2853	0.9063
H	1.6423	7.8557	-0.4190
C	-1.5515	-0.5312	-1.4664
N	0.1351	-1.4288	0.0868
C	-2.4997	-0.9013	-2.5575
C	2.0566	-4.7157	3.2303
C	-1.3344	0.8386	-1.2437
H	-0.5792	-4.5273	0.3768
C	-2.0676	-1.7480	-3.5942
C	2.4352	-6.0079	3.5504
C	-1.7844	1.9313	-2.0353
C	-2.8951	-2.0516	-4.6698
C	2.6188	-6.9277	2.5527
C	-1.2778	3.0683	-1.4807
C	-4.1349	-1.5130	-4.7325
C	0.0732	5.0785	0.2678
C	-0.5215	2.6959	-0.3460
C	-1.2086	5.6282	0.4408
H	-2.3277	1.8714	-2.8115
N	1.5542	1.8116	1.4151
H	-1.4089	3.9570	-1.7900
C	-4.6992	-2.7143	-6.7168
C	-0.3317	7.8091	-0.0147
C	0.9154	7.2883	-0.1937
C	1.1210	5.8897	-0.0431
H	-1.1928	-2.1137	-3.5515
H	-4.2461	-2.2910	-7.4372
N	-0.5950	1.3350	-0.1761
H	-5.4890	-3.1310	-7.0416
H	-4.1328	-3.3704	-6.3294
H	-5.5163	-0.3206	-3.7542
H	3.8848	-2.6523	3.1894
H	-4.0898	0.1936	-1.9552
H	1.9863	5.5130	-0.1535
C	-1.3764	-2.9670	-0.6941
Cu	0.6201	0.2663	0.8274
C	3.3908	-1.8765	2.9473
H	-1.9407	5.0586	0.6525
C	2.1541	-1.8544	2.2195
H	-2.2606	7.3725	0.4354
C	1.4483	-2.9071	1.5902
C	0.2882	3.5869	0.4495
*