! UKS B3LYP ma-def2-SVP OPT NumFreq
%basis
NewGTO Sn "ma-def2-TZVP" end
end 

%scf
  maxiter 200
end

%pal 
	nprocs 16
end
* xyz 0 1
H	-1.6511	-0.8553	-4.1355
H	0.7595	-0.5932	-3.8924
C	2.8760	-0.0919	-2.1626
H	-3.4573	0.6413	-4.1970
C	4.8533	-1.2508	-2.8819
H	-5.1280	0.3881	-5.7705
C	3.8013	-1.1160	-2.0268
H	-7.0162	-2.1918	-3.3443
H	4.1918	1.2875	-4.7829
C	6.1977	0.1563	-5.9156
H	3.3199	3.0927	-4.3313
C	1.5637	1.3744	4.7277
H	1.8685	3.6457	-4.1135
C	1.3836	0.8013	5.9761
H	2.1217	2.4969	-5.1493
C	2.0914	1.2359	7.0761
C	2.9705	2.2764	6.9485
H	5.4524	-0.0050	-6.5003
C	3.1434	2.9063	5.7238
C	2.4266	2.4553	4.6185
C	3.7835	2.6757	8.0763
N	-2.8798	-0.1977	0.6470
N	-0.7844	-0.1864	-1.1691
N	0.9426	0.3264	1.0955
N	-1.3692	0.2886	2.6358
N	4.4664	2.9592	8.9507
Cl	-0.5596	-2.8303	1.0960
O	6.0586	-0.6109	-4.7639
C	-1.2072	-0.6525	-3.3436
C	0.1355	-0.5114	-3.2068
C	-4.2169	-0.6184	-2.8200
C	-4.1723	0.0731	-4.0205
C	-5.1779	-0.0679	-4.9625
C	-6.2656	-0.9006	-4.6908
C	-6.3048	-1.6187	-3.5170
C	-5.2849	-1.4839	-2.5932
C	-7.3532	-0.9800	-5.6183
H	6.4990	-3.5612	-1.4967
H	6.0479	-2.2511	-0.8203
C	3.0400	0.8353	-3.1780
C	4.0920	0.6866	-4.0802
C	4.9942	-0.3640	-3.9266
C	2.3874	2.8609	-4.3019
N	-8.2340	-1.0493	-6.3273
O	2.1681	1.8683	-3.2545
Sn	-0.8761	-0.5429	0.8292
H	-5.5862	0.6992	1.9332
H	-5.7735	0.2004	-0.4671
H	4.0224	0.3843	0.4110
H	3.5713	0.7736	2.7676
H	-1.2838	1.7398	5.4044
H	-3.5768	1.4223	4.5536
H	-5.3134	-1.9802	-1.8077
C	5.8375	-2.8935	-1.4852
H	3.7015	-1.7270	-1.3338
H	7.0125	-0.0805	-6.3627
H	6.2209	1.0872	-5.6784
H	5.0013	-3.2828	-1.2936
H	0.7720	0.1072	6.0733
H	1.9720	0.8227	7.9018
H	3.7300	3.6218	5.6430
H	2.5300	2.8823	3.7983
C	-3.5536	0.2369	1.7652
C	-4.8926	0.4284	1.3777
C	-4.9961	0.1487	0.0417
O	5.7840	-2.2536	-2.7631
C	-3.7123	-0.2342	-0.4375
C	-3.2006	-0.4484	-1.7527
C	-1.8312	-0.4383	-2.0730
C	0.4332	-0.2204	-1.8520
C	1.6867	-0.0188	-1.2447
C	1.9292	0.2168	0.1274
C	3.1808	0.4082	0.8048
C	2.9259	0.6274	2.1139
C	1.5226	0.6022	2.3414
C	0.8130	0.8769	3.5360
C	-0.5956	0.8088	3.6375
C	-1.5138	1.3417	4.5960
C	-2.7940	1.1653	4.1240
C	-2.7031	0.5254	2.8733
*