! UKS B3LYP ma-def2-SVP OPT NumFreq
%basis
NewGTO Sn "ma-def2-TZVP" end
NewGTO Br "ma-def2-TZVP" end
end 

%scf
  maxiter 200
end

%pal 
	nprocs 16
end
* xyz 0 1
N	-1.9542	-1.4377	-1.9916
H	-4.9771	-3.6553	0.0852
H	-4.3833	-3.2534	2.4465
C	-0.8677	-0.7640	2.6063
C	1.5157	0.5193	-0.8505
C	0.0033	-0.2094	3.5981
C	2.3171	0.9521	-1.9486
C	1.0157	0.4415	2.9796
C	0.8490	0.3108	1.5694
C	1.7937	0.4333	-3.0873
C	0.6295	-0.3319	-2.7746
C	1.6582	0.8079	0.5228
H	-2.3346	-2.7594	-4.8029
C	-0.2525	-1.0022	-3.6496
H	-4.0528	-3.4378	-3.1586
C	-1.4787	-1.5912	-3.2641
N	-3.6994	-2.7222	9.3390
H	-4.3018	-1.0406	4.1157
H	-4.8642	-1.3764	6.3592
Br	5.8874	4.9947	2.0991
C	-3.4426	-2.3080	-0.4061
C	-1.5782	-2.4897	5.0423
C	-4.3052	-3.0910	0.3917
C	-3.9712	-2.8654	1.7082
C	2.7238	1.7814	0.9204
C	-2.8972	-1.9447	1.7557
C	2.3433	2.9833	1.5241
C	0.1303	-1.0633	-5.0924
C	-0.8001	-0.7131	-6.0820
C	-0.4245	-0.6897	-7.4070
C	5.0203	2.4879	1.0576
C	4.0652	1.5576	0.6941
C	0.8643	-1.0268	-7.7668
C	-2.0673	-1.4983	2.7977
C	1.7879	-1.4149	-6.8062
C	1.4096	-1.4342	-5.4786
H	5.9233	2.3227	0.9072
C	1.2528	-0.9731	-9.1582
N	0.5067	-0.2743	-1.3764
Sn	-1.2870	-0.3331	-0.4078
C	-2.3826	-2.4814	-3.9174
C	3.2856	3.9163	1.8897
C	-3.3420	-2.8598	-2.9974
N	-0.3017	-0.4356	1.3697
C	-3.0634	-2.2223	-1.7759
Cl	-2.1173	1.8193	-0.5256
C	4.6099	3.6631	1.6458
H	3.0266	4.7117	2.2960
H	3.0688	1.4970	-1.8941
N	1.5508	-0.9621	-10.2462
H	2.1403	0.5571	-3.9423
H	-0.1082	-0.2851	4.5193
C	-2.4509	-1.8154	4.2062
H	1.7052	0.8998	3.4038
C	-3.6898	-1.4424	4.6888
C	-4.0417	-1.6585	6.0298
C	-3.1282	-2.3080	6.8573
C	-1.9134	-2.7291	6.3685
C	-3.4527	-2.5365	8.2507
H	-1.3162	-3.1750	6.9256
H	-0.7604	-2.7842	4.7131
H	-1.6722	-0.4984	-5.8424
H	1.4424	3.1526	1.6820
H	-1.0406	-0.4447	-8.0600
H	2.6504	-1.6598	-7.0537
H	2.0231	-1.6998	-4.8319
H	4.3331	0.7649	0.2890
N	-2.6441	-1.6074	0.4447
*