! UKS B3LYP ma-def2-SVP OPT NumFreq
%basis
NewGTO Ir "ma-def2-TZVP" end
end 

%scf
  maxiter 200
end

%pal 
	nprocs 16
end
* xyz 0 1
C	-4.1078	1.6474	1.5806
C	-2.9141	0.9097	1.6056
C	-2.3604	-0.0745	2.5136
C	-1.0951	-0.7130	2.3740
C	2.7384	-0.1497	-2.6968
C	1.4372	0.4328	-2.4451
C	0.6409	1.2842	-3.2785
C	-0.6033	1.8971	-2.9441
C	-1.5103	2.7676	-3.6417
C	-2.5591	3.0333	-2.8171
C	-0.4697	-1.6076	3.3074
C	-2.3571	2.3516	-1.5916
C	-3.2251	-0.4794	3.6257
C	0.7158	-1.9340	2.8426
C	-3.8863	0.4280	4.4260
C	0.9031	-1.2939	1.5488
C	-4.7624	-0.0233	5.4318
C	1.9632	-1.4203	0.6405
C	2.0593	-0.8122	-0.6725
C	3.0967	-0.8714	-1.6194
C	4.2252	0.0343	3.8452
C	-5.0376	-1.3195	5.6128
C	-4.3700	-2.2493	4.8517
C	1.1425	1.5978	-4.5963
C	-3.4645	-1.8540	3.8710
C	2.0854	2.1435	-7.2149
C	3.1472	-2.1869	1.1291
C	3.9582	-1.6220	2.1411
C	4.9776	-2.3229	2.6977
C	5.2300	-3.5760	2.2330
C	4.4988	-4.1713	1.1568
C	3.4175	-3.4431	0.6220
C	6.8732	-3.9360	3.7854
C	4.1568	-5.8996	-0.3473
C	1.6848	1.9691	1.0494
C	2.3769	3.0141	1.6089
C	-1.0495	-2.3277	-1.0118
C	1.8281	4.2703	1.6430
C	0.5807	4.4384	1.1150
C	-1.6976	-3.4031	-1.5188
C	-0.0870	3.3758	0.5890
C	-2.9613	-3.2399	-2.1217
C	2.5511	5.4065	2.2889
C	-3.4727	-1.9516	-2.1659
C	-2.7854	-0.9291	-1.6255
C	3.4663	5.2001	3.2977
C	-3.7348	-4.3745	-2.6486
C	4.0607	6.3107	3.9087
C	-3.7593	-5.6179	-2.0408
C	2.9436	7.7286	2.5769
C	2.3036	6.7380	1.9092
C	-4.6289	-6.5573	-2.5189
C	-5.3731	-5.1955	-4.1384
C	-4.5540	-4.1745	-3.7382
C	2.5560	2.4492	-8.5160
C	0.4276	1.3018	-5.6868
C	0.9064	1.5898	-6.9355
C	2.7954	2.6444	-6.0038
C	2.3036	2.3756	-4.7258
N	-2.2431	1.2282	0.4519
N	-0.2287	-0.5530	1.3530
N	1.0236	-0.0169	-1.1644
N	-1.1553	1.6954	-1.7478
N	0.4406	2.1307	0.5433
N	3.7953	7.5509	3.5897
N	2.9322	2.6940	-9.5856
C	-5.9887	-1.7644	6.5942
O	3.6471	-0.3529	2.5671
N	-1.5722	-1.0619	-1.0730
N	-5.4252	-6.4069	-3.5631
H	-4.8113	2.9741	0.1589
H	-4.7657	1.6394	2.2355
H	3.2416	-0.0425	-3.4700
H	-1.3996	3.0909	-4.5058
O	6.1843	-4.4577	2.7347
H	-3.2870	3.5726	-3.0240
O	4.8294	-5.3955	0.7795
H	-3.7544	1.3402	4.3018
H	-5.1630	0.6024	5.9915
H	-0.8410	-1.9052	4.1052
H	3.9386	0.9225	4.0688
H	1.3314	-2.4829	3.2706
H	5.1828	0.0135	3.7824
H	3.8963	-1.3339	-1.5153
H	3.9354	-0.5770	4.5256
H	-4.5263	-3.1551	4.9951
H	-3.0134	-2.4989	3.3732
H	5.4906	-1.9564	3.3827
H	2.8947	-3.8016	-0.0598
H	7.5197	-4.5745	4.0936
H	-3.1714	-0.0841	-1.6384
H	6.2625	-3.7296	4.4964
H	2.0821	1.1273	1.0151
H	7.3226	-3.1343	3.5056
H	3.2221	2.8701	1.9688
H	4.4581	-6.7942	-0.5251
H	0.1882	5.2801	1.1133
N	-6.7541	-2.1405	7.3405
H	4.3408	-5.3411	-1.1064
H	-0.9420	3.5118	0.2482
H	3.2123	-5.9076	-0.1787
H	-0.2222	-2.4525	-0.6050
H	3.6862	4.3375	3.5670
H	-1.3100	-4.2465	-1.4720
H	4.6828	6.1555	4.5821
H	-4.2950	-1.7932	-2.5697
H	2.7742	8.6039	2.3099
H	1.7157	6.9348	1.2159
H	-3.1974	-5.8100	-1.3255
H	-4.6615	-7.3719	-2.0735
H	-0.4029	0.8953	-5.5978
H	-5.9349	-5.0386	-4.8629
H	-4.5507	-3.3631	-4.1904
H	0.3559	1.3786	-7.6544
H	3.5755	3.1421	-6.0996
H	2.7384	2.7052	-3.9725
Ir	-0.5782	0.5417	-0.2627
C	-2.9939	2.0939	-0.3067
C	-4.1387	2.3852	0.4132
*