! UKS B3LYP ma-def2-SVP OPT NumFreq
%basis

end 

%scf
  maxiter 200
end

%pal 
	nprocs 16
end
* xyz 0 1
C	-3.7319	1.4867	-0.1272
Co	0.1196	-0.2148	-0.0150
H	-2.7262	-3.5854	-2.3707
C	-3.9583	1.9629	1.1417
C	-2.9618	1.7913	2.0737
H	-2.7118	-4.3243	-0.0172
F	5.1138	1.8613	5.9536
H	0.1650	-2.6678	4.3214
F	4.3042	0.9676	3.5302
C	-1.7885	1.1617	1.7200
H	1.5328	-0.6837	4.7493
N	-0.8897	-1.7452	-0.5012
H	1.1293	-2.9676	-0.3792
N	0.3693	-0.7535	1.7739
H	3.1140	-4.1028	-0.6050
N	1.0486	1.3943	0.2826
N	0.0177	0.4692	-1.7647
N	1.8514	-1.1449	-0.4325
H	2.9828	0.4614	-0.5854
N	-1.5672	0.6929	0.4737
H	-2.4210	0.5116	-1.2965
H	-4.3927	1.5951	-0.8028
H	-4.7739	2.3965	1.3671
H	-3.0836	2.1057	2.9617
F	-0.0732	-2.9430	-4.9546
H	-1.1108	1.0528	2.3778
F	-1.4420	-3.8096	-7.0873
F	-4.0544	-3.1657	-7.3891
F	-5.2808	-1.6076	-5.5364
C	-1.2053	-1.2555	-2.9145
F	-3.8932	-0.6755	-3.4246
C	-1.4146	-2.0115	-1.7611
F	-0.5912	-5.6052	1.5751
C	-2.2499	-3.1761	-1.6586
F	-1.7971	-7.3430	3.2641
C	-2.2379	-3.5823	-0.3751
F	-3.4746	-6.4360	5.1868
C	-1.3700	-2.6864	0.3597
F	-3.9995	-3.7850	5.3885
C	-1.0183	-2.7721	1.7091
F	-2.8400	-2.0596	3.7185
C	-0.1401	-1.8806	2.3429
F	0.0177	2.6537	4.3797
C	0.3453	-1.9687	3.7040
F	0.7947	3.4750	6.8207
C	1.0898	-0.8876	3.9339
F	3.3591	3.1049	7.5980
C	1.1155	-0.0796	2.7393
C	1.6318	1.1955	2.6114
C	1.5598	1.9741	1.4154
F	3.6318	3.8286	2.5796
C	3.8651	2.0554	5.5834
C	1.9011	3.3080	1.0883
F	1.7502	4.7601	2.9396
C	1.5683	3.5066	-0.2669
F	2.9732	5.3922	1.3110
C	1.0983	2.2721	-0.7524
F	2.5872	5.3706	-1.3615
C	0.6438	1.6582	-1.9870
F	0.8393	5.7276	-0.1840
C	0.6850	1.8906	-3.3795
F	0.6695	4.7115	-2.0586
C	-0.0526	0.8525	-3.9800
F	2.5461	3.2802	-3.2391
C	-0.4506	-0.0480	-2.9517
F	1.0417	3.8887	-4.6454
C	-1.9377	-1.7565	-4.1371
C	4.2854	-2.4810	-0.6968
F	2.2956	2.1881	-5.0506
C	4.2082	-1.1178	-0.7054
C	-1.3562	-2.5735	-5.0835
F	0.2596	-0.2760	-6.0248
F	-0.0475	1.8439	-6.1066
C	-2.0492	-3.0339	-6.1888
F	-1.6719	0.5570	-5.6620
C	-3.3700	-2.7089	-6.3395
C	-3.9858	-1.9258	-5.4005
C	-3.2705	-1.4721	-4.3188
C	-1.6787	-3.7832	2.5803
C	-1.4437	-5.1373	2.4970
C	-2.0492	-6.0446	3.3665
C	-2.8949	-5.5707	4.3412
C	-3.1522	-4.2459	4.4442
H	5.1184	-2.9335	-0.7606
C	-2.5707	-3.3612	3.5804
H	4.9994	-0.6009	-0.8036
C	2.1550	1.7620	3.8901
C	1.2664	2.4233	4.7632
C	1.6747	2.8679	6.0029
C	2.9440	2.6783	6.3777
C	3.4260	1.5995	4.3136
C	2.5426	4.3100	1.9588
C	1.4465	4.8088	-0.9631
C	1.6044	2.8227	-4.0764
C	-0.3682	0.7464	-5.4384
C	1.9320	-2.4674	-0.4558
C	3.1172	-3.1535	-0.5893
C	3.0023	-0.4881	-0.5740
C	-2.5484	0.8525	-0.4196
*