! UKS B3LYP ma-def2-SVP OPT NumFreq
%basis

end 

%scf
  maxiter 200
end

%pal 
	nprocs 16
end
* xyz 0 1
H	-8.2536	0.6896	4.5457
H	7.2548	1.6216	-3.2080
H	-7.9902	2.2359	4.8632
H	4.1271	2.7200	-5.4833
H	-7.5632	1.1169	5.9256
H	-5.3477	3.0512	0.9640
H	7.0025	0.8717	-1.0292
H	-4.0805	2.1357	0.6271
H	5.6161	0.1581	-0.6703
H	-3.9003	3.4533	1.5169
H	5.8601	1.6847	-0.2583
H	7.4489	3.2239	-5.3206
C	1.5641	3.0535	1.2603
H	6.2788	2.9637	-6.3804
C	-0.4417	-2.1389	-0.9718
C	2.4570	4.0431	0.8199
C	3.2123	3.4872	-0.1916
H	7.2465	1.7659	-5.9472
C	2.7878	2.1397	-0.3661
C	3.1092	1.2100	-1.3466
C	2.4190	0.0051	-1.4872
C	2.6741	-1.0263	-2.4431
C	1.7053	-1.9693	-2.3211
C	0.7897	-1.5483	-1.3021
C	-1.3412	-1.6082	-0.0242
C	-2.6763	-2.0356	0.2195
C	-3.2201	-1.2013	1.1483
C	-2.2712	-0.2212	1.4974
C	-2.4620	0.8654	2.3526
H	-1.5323	-4.4224	-4.7357
C	-1.5076	1.8716	2.5142
C	-1.5819	3.1592	3.1157
C	-0.4223	3.8413	2.8279
C	0.3851	2.9771	2.0486
H	-2.7079	-8.5684	-3.8476
C	-0.8640	-3.3484	-1.7151
C	-1.0135	-3.3390	-3.1102
C	-1.4247	-4.4579	-3.7928
C	-1.6845	-5.6375	-3.1150
C	-1.5492	-5.6793	-1.7257
C	-1.1543	-4.5336	-1.0539
C	-2.4454	-7.8840	-3.1984
C	2.0940	2.2406	-3.8620
C	-3.7927	0.9987	3.0426
C	-4.0794	0.2007	4.1640
C	-5.3332	0.3395	4.7764
C	-6.2849	1.2273	4.3216
C	-5.9780	2.0151	3.2147
C	-4.7496	1.8936	2.5565
C	-3.1056	-0.8094	4.7070
C	-7.6408	1.3259	4.9708
C	4.0860	1.5751	-2.4317
C	-4.4972	2.7050	1.3061
N	1.7957	1.8865	0.5643
C	5.4688	1.4458	-2.2476
N	1.2683	-0.3552	-0.7630
C	6.3184	1.7478	-3.3148
N	-1.0950	-0.4853	0.7658
C	5.8456	2.2185	-4.5121
N	-0.2720	1.7825	1.8894
C	4.4695	2.3841	-4.6634
Cl	1.6027	-0.9155	2.6923
C	3.5861	2.0647	-3.6363
C	6.0359	1.0018	-0.9386
C	6.7873	2.5741	-5.6394
O	-2.0741	-6.7004	-3.8845
H	1.6454	-2.7728	-2.8259
H	-3.1128	-2.7728	-0.1916
Ti	0.7164	0.2770	1.0428
H	2.5271	4.9294	1.1556
H	-4.0999	-1.2691	1.5044
H	-2.3087	3.4920	3.6282
H	-0.2041	4.7252	3.1003
H	-0.8252	-2.5426	-3.5937
H	-1.7264	-6.4812	-1.2471
H	-1.0803	-4.5596	-0.1064
H	-1.6848	-8.2081	-2.6722
H	1.6981	1.3787	-4.1102
H	-3.1987	-7.6924	-2.6010
H	1.9476	2.8880	-4.5822
H	1.6759	2.5662	-3.0382
H	3.8969	3.9257	-0.6845
H	3.3978	-1.0483	-3.0582
H	-5.5334	-0.1983	5.5329
H	-6.6121	2.6467	2.8998
H	-3.2015	-1.6531	4.2168
H	-3.2902	-0.9624	5.6576
H	-2.1922	-0.4727	4.6010
*