! UKS B3LYP ma-def2-SVP OPT NumFreq
%basis

end 

%scf
  maxiter 200
end

%pal 
	nprocs 16
end
* xyz 0 1
F	4.4067	-0.6390	-3.5835
H	-4.8029	4.6412	-0.1474
H	-5.2012	6.8909	-0.6142
H	-5.1518	8.0520	0.4867
H	-5.4396	6.5401	0.9287
H	3.8994	3.8551	1.7482
N	1.2067	-2.1980	-1.3566
N	0.1042	0.2213	-1.3922
F	-4.9433	-3.1011	5.6006
O	-3.5342	6.8905	0.4724
F	1.2866	0.3254	-7.9155
F	0.1230	-0.2596	-5.5758
C	-4.9433	7.1098	0.3050
H	-2.7940	1.8392	2.3653
H	-2.6058	-0.1605	3.7956
H	-0.1279	-5.0750	2.9700
H	1.2921	-5.7644	1.0520
H	-1.2375	7.4352	0.9346
H	1.0342	7.1328	1.3008
H	0.6711	3.1576	0.6494
H	2.9741	3.3471	0.5454
H	2.4699	3.2060	2.0571
C	-1.5519	0.8120	0.9736
C	-2.3086	1.0474	2.1600
C	-2.2114	-0.0492	2.9385
C	-1.4257	-1.0063	2.2634
C	-1.1042	-2.3178	2.7019
C	-0.2597	-3.1737	1.9961
C	0.1167	-4.5376	2.2261
C	0.8883	-4.9134	1.1765
C	0.9824	-3.7946	0.2935
C	-0.8627	6.5623	0.8747
C	0.4829	6.3853	1.1052
C	1.0381	5.1037	1.0495
C	0.2728	4.0187	0.7057
C	2.9764	3.7664	1.4315
C	3.5959	-0.3761	-4.6209
C	4.1911	-0.0714	-5.8239
C	-1.6640	-2.7242	4.0105
C	3.4289	0.1637	-6.9373
C	-3.0496	-2.7947	4.2264
C	-3.6040	-3.0729	5.4382
C	-2.7869	-3.3297	6.5220
C	-1.4084	-3.3104	6.3610
C	-0.8846	-3.0217	5.1178
Fe	0.4414	-1.0635	-0.0434
H	2.6981	-4.9178	-1.9873
H	2.9568	-3.2205	-3.7977
H	0.9142	1.9803	-3.9305
H	-0.5615	3.1939	-2.3865
H	-3.8094	2.5246	-0.3638
N	-1.0140	-0.4709	1.0514
N	0.2736	-2.7734	0.8110
C	1.5289	-3.4640	-0.9665
N	1.7085	-0.2701	0.6177
C	2.3311	-4.0429	-1.9917
C	2.4777	-3.1080	-2.9850
C	1.7681	-1.9235	-2.5659
C	1.5572	-0.6946	-3.1659
O	2.3750	5.0521	1.3513
C	0.7942	0.3362	-2.5972
C	0.5598	1.6397	-3.1182
O	2.5640	0.4741	0.9458
C	-0.2401	2.3053	-2.2784
C	-0.5184	1.4272	-1.1863
C	-1.3167	1.6977	-0.0590
F	-3.8855	-2.5436	3.2043
F	-0.6078	-3.5543	7.3944
F	0.4539	-2.9798	5.0188
C	2.2080	-0.4140	-4.4916
C	2.0261	0.1028	-6.8254
F	5.5327	-0.0298	-5.9456
C	1.4764	-0.1895	-5.6390
C	-1.9220	3.0540	0.0570
F	3.9942	0.4890	-8.0949
C	-3.2629	3.2648	-0.1347
C	-3.8690	4.5336	-0.0070
F	-3.2840	-3.6398	7.6875
C	-3.0825	5.6145	0.3250
C	-1.6899	5.4726	0.5533
C	-1.1065	4.1756	0.4322
*