! UKS B3LYP ma-def2-SVP OPT NumFreq
%basis

end 

%scf
  maxiter 200
end

%pal 
	nprocs 16
end
* xyz 0 1
H	-3.0405	-3.1671	-0.8396
H	-4.8104	3.8734	3.6857
H	-5.2742	2.3732	3.3831
H	-5.5893	4.5690	1.5729
H	-6.7804	3.8452	2.3580
H	-5.9911	3.0639	1.2058
H	-1.6530	5.5046	2.9950
H	-3.2429	5.4679	3.1771
H	-1.9512	5.8647	0.6486
H	-2.6258	7.0391	1.5000
H	-3.5361	5.8855	0.8670
H	-5.4834	-2.9822	-0.4942
H	-6.5875	-2.1960	0.3539
H	-4.8672	-4.2154	1.4310
H	-6.4287	-4.4089	1.1388
H	-5.9493	-3.4157	2.2967
H	-6.8897	-0.5182	1.8629
H	-6.2766	0.9355	2.1495
C	-3.0571	1.6187	1.8887
C	-3.5497	2.8895	2.4028
C	-2.5010	3.7835	2.2763
C	-3.3007	-1.5624	0.3256
Zn	-0.7795	0.1369	0.8411
C	-4.6790	-1.5624	0.7443
H	0.1560	-0.0381	3.1366
C	-4.8765	-0.4091	1.4868
H	0.6336	-1.1244	2.5173
C	-3.6018	0.2844	1.4951
H	0.0889	4.3657	1.4046
C	-4.9083	3.1957	2.9709
C	-5.9072	3.7148	1.9337
H	4.5831	-7.4938	-4.1637
H	3.5538	4.5372	-0.1224
H	2.5581	4.7943	1.1027
C	-5.6924	-2.6163	0.4011
H	4.1617	2.9880	-1.7140
C	-5.7383	-3.7674	1.4076
H	4.0060	1.4339	-2.0720
C	-6.1123	-0.0367	2.2423
H	5.0749	2.3818	0.4251
H	4.9586	0.8387	0.0255
H	8.2712	1.7756	-2.8056
H	7.8556	0.3550	-3.4137
N	-2.7034	-0.4383	0.8282
H	2.4455	-2.4409	-3.1305
H	1.4615	-3.6117	-3.6073
C	-2.5035	5.2561	2.5535
H	3.0390	-3.7647	-1.2018
C	-2.6690	6.0862	1.2772
H	2.1084	-4.9477	-1.7495
H	4.8119	-6.0646	-4.8455
H	5.6063	-6.4516	-3.5107
H	-0.4824	-4.6869	-3.1349
H	-1.9653	-4.1946	-2.7919
H	-1.1478	-5.0678	-1.7293
H	2.0975	5.1446	-0.3889
C	-1.3837	3.0503	1.7068
C	-0.1478	3.4619	1.2305
C	0.8094	2.6881	0.5098
C	2.0681	3.1387	0.0073
C	2.6564	2.0683	-0.6552
C	1.7293	0.9748	-0.5344
C	1.8969	-0.4099	-1.0557
C	0.7825	-1.3851	-1.1924
C	0.7544	-2.5841	-1.9773
C	-0.5214	-3.1220	-1.8185
C	-1.2349	-2.2512	-0.9397
C	-2.5797	-2.4030	-0.5136
C	2.6166	4.5233	0.1631
C	3.9991	2.0897	-1.3310
C	5.1203	1.7472	-0.3333
C	6.5089	1.7942	-0.9191
C	7.9193	0.8865	-2.5919
C	1.8540	-3.1688	-2.8135
C	2.6871	-4.1918	-2.0223
H	-5.8660	-1.3632	3.8179
H	-6.7566	-0.0945	4.2135
C	3.8323	-4.7116	-2.8459
H	-5.1680	0.0525	4.0876
C	4.7579	-6.5452	-3.9927
C	-1.0773	-4.3762	-2.4208
N	-1.7807	1.7500	1.5408
N	0.6310	1.3685	0.1541
N	-0.4150	-1.2036	-0.5809
H	8.5200	0.4395	-1.9592
O	3.0277	-0.7531	-1.4372
O	-0.0450	-0.6524	2.5890
O	6.6059	1.0163	-1.9994
O	7.4287	2.4257	-0.4775
O	3.6829	-5.9914	-3.1927
O	4.7864	-4.0526	-3.1998
C	-5.9623	-0.3923	3.7239
*