! UKS B3LYP ma-def2-SVP OPT NumFreq
%basis

end 

%scf
  maxiter 200
end

%pal 
	nprocs 16
end
* xyz 0 1
C	-3.1930	-2.4031	4.4966
C	-2.7015	-3.5055	4.9872
C	-1.4872	-4.0296	4.4515
Co	0.3409	0.4708	-0.6581
H	-4.1105	-1.7419	-1.2895
H	-3.3502	-2.4445	0.9511
H	1.2164	-1.5715	3.8138
H	3.2764	-0.3177	3.3140
H	2.9425	-0.9103	-0.7199
H	4.0215	-2.5751	-1.9049
H	4.6502	2.9355	-1.0307
H	3.2674	3.5457	-3.0057
H	2.8891	-3.6553	-3.6824
H	0.6628	-3.0690	-4.1055
H	0.3596	3.0136	-4.7813
H	-1.8233	1.8649	-4.8990
H	-0.3435	-1.4090	-2.8468
H	-2.2496	1.8107	-0.5506
H	-3.3634	3.4373	0.7934
H	-2.0463	4.7660	2.2249
H	0.1932	4.2259	2.5106
H	1.1017	2.4703	1.3611
C	-2.2909	-0.5901	-1.4144
C	-3.3003	-1.4838	-0.8659
C	-2.8763	-1.8773	0.3547
C	-5.7094	0.3913	-4.3532
C	-1.5925	-1.2958	0.5947
C	-5.6420	-0.6299	-5.2454
C	-0.7685	-1.4568	1.7567
C	0.5102	-0.9326	1.9015
C	1.3920	-1.0776	3.0214
C	2.5152	-0.3814	2.7487
C	2.3754	0.2495	1.4599
C	3.2760	1.1114	0.8237
C	-1.3664	1.0110	-3.0176
C	-2.3583	0.1125	-2.5942
C	-1.4032	-2.1721	2.9073
C	3.0273	1.7327	-0.3926
C	-2.5594	-1.7260	3.4575
C	3.7717	2.6232	-1.2124
C	3.0155	2.9578	-2.3039
C	1.7699	2.2536	-2.1887
C	0.5935	2.0656	-2.9006
C	-0.9060	-3.3542	3.4317
C	-0.0053	2.4305	-4.1251
F	-4.3197	-1.9188	5.0092
C	-1.1988	1.7964	-4.1881
F	-3.2623	-4.2192	5.9549
F	-0.9712	-5.1847	4.9084
C	6.8624	1.1974	2.1796
C	5.7229	0.8517	1.3912
C	-3.5292	-0.1265	-3.4973
C	-4.6624	0.6366	-3.5073
C	-4.5034	-1.3962	-5.3212
C	4.5324	1.4857	1.5656
C	-3.4740	-1.1238	-4.4407
C	4.5200	2.5404	2.4576
C	5.6070	2.8781	3.1857
C	6.7534	2.1819	3.0100
C	2.4761	-1.3564	-1.4173
C	3.1273	-2.3393	-2.1225
C	2.4559	-2.9877	-3.1633
C	1.1508	-2.6341	-3.4163
C	0.5588	-1.6463	-2.6631
C	-1.7725	2.2680	0.1320
C	-2.4304	3.2844	0.8837
C	-1.6626	4.0379	1.7510
C	-0.3483	3.7209	1.9137
C	0.1860	2.6854	1.2248
F	-6.8185	1.1671	-4.2837
F	-6.6568	-0.8593	-6.0828
N	-1.2565	-0.5359	-0.4767
N	1.1352	-0.1297	0.9596
N	-0.2465	1.2038	-2.2564
N	1.2208	-1.0011	-1.6697
F	-3.1303	-0.6156	3.0746
N	1.8266	1.5399	-1.0225
N	-0.5240	1.9541	0.3622
F	0.2424	-3.9006	2.8981
F	7.9952	0.5283	1.9984
F	5.8264	-0.1233	0.4958
F	-4.4054	-2.3505	-6.2331
F	-2.3824	-1.9188	-4.5093
F	3.3966	3.2159	2.6384
F	5.5477	3.9089	4.0559
F	7.8537	2.5627	3.7546
F	-4.7675	1.6833	-2.6537
*