! UKS B3LYP ma-def2-SVP OPT NumFreq
%basis

end 

%scf
  maxiter 200
end

%pal 
	nprocs 16
end
* xyz 0 1
Mn	0.4902	0.1768	-0.7028
C	0.2471	5.7816	-0.6940
F	1.0442	-2.0354	6.5899
H	-1.4197	8.5859	-0.8026
N	0.3846	1.6486	-1.9120
C	2.9000	1.9012	0.5794
N	0.1774	-1.5378	0.1267
C	-1.1615	1.8625	2.6805
C	0.6931	1.4016	-3.2285
N	-0.4800	1.2176	0.6099
C	1.0014	0.0506	-3.4686
H	-1.3705	3.8510	2.1753
F	-3.1852	-0.4931	3.5657
C	-0.2809	-6.4720	-2.9745
N	0.9188	-0.7235	-2.3377
C	2.6460	2.1809	2.0280
C	2.0208	-5.0506	-2.6434
F	-3.5491	7.2244	-0.3971
C	-0.7003	2.5881	0.5939
H	0.5924	2.7206	-4.8901
F	1.4329	-1.4041	4.0380
F	-1.5136	-4.7152	-2.0568
H	-0.1891	4.4481	-3.2625
C	-0.7810	4.8722	-0.4774
F	-3.1109	4.6003	-0.1349
H	0.1690	-4.7006	0.5211
C	0.4665	2.5977	-3.9567
C	-0.0364	2.9346	-1.7691
C	-2.3171	-1.2247	5.6232
C	-2.2904	6.7667	-0.4832
C	0.3747	-2.8070	-0.4136
H	3.0264	0.0534	0.1556
C	-1.2591	7.6533	-0.7157
H	0.9317	-7.9206	-3.7426
C	2.0586	-6.3189	-3.1797
C	-0.0251	-1.6908	5.8431
C	0.1783	-1.3584	4.5238
F	1.5156	5.3459	-0.7999
C	-0.6096	-0.6002	2.2713
C	0.7714	-3.0524	-1.7440
O	2.3925	0.6033	0.1902
C	-2.0511	5.4070	-0.3508
H	1.3707	-0.5385	-5.4817
F	-1.4401	-7.1385	-3.1521
H	2.4659	2.6009	0.0299
C	-0.8680	-0.9448	3.7013
C	-0.2240	-1.6838	1.4402
H	3.8742	1.9373	0.4053
H	-0.4680	-3.4673	2.5849
H	1.3899	-2.8807	-4.6085
C	0.0295	3.5459	-3.0596
F	1.0603	7.9518	-1.0481
C	0.1092	-3.7560	0.6098
F	3.1890	-4.4001	-2.4596
H	-1.4118	1.8310	3.5967
C	-0.7464	0.7455	1.8881
H	1.6805	2.1807	2.1960
C	-0.5039	3.4087	-0.5331
H	3.0181	3.0568	2.2617
H	3.0728	1.4882	2.5741
C	0.0063	7.1361	-0.8165
C	0.9076	-7.0507	-3.3629
H	-1.4061	-1.8793	7.3278
C	1.0139	-2.0409	-2.6892
F	3.2559	-6.8525	-3.4992
C	-2.1154	-0.8801	4.2947
C	-1.1373	2.9724	1.9010
C	-1.2714	-1.6398	6.4188
C	-0.3150	-5.2195	-2.4161
C	1.2415	-0.8060	-4.5791
C	0.8344	-4.4543	-2.2420
F	-3.5626	-1.1526	6.1315
C	-0.2466	-3.0787	1.7462
C	1.2509	-2.0937	-4.0953
*