! UKS B3LYP ma-def2-SVP OPT NumFreq
%basis
NewGTO Re "ma-def2-TZVP" end
end 

%scf
  maxiter 200
end

%pal 
	nprocs 16
end
* xyz 0 1
O	-3.3702	5.1514	2.4817
H	-5.0241	2.0175	-1.2071
H	-6.5975	3.5553	-1.9538
H	-5.9411	6.9847	-2.7954
H	-6.5777	5.8600	-3.7393
H	-7.1168	6.0492	-2.2444
Re	0.5665	0.5910	-0.1145
H	2.9409	-3.8733	0.1787
H	1.5826	-4.0358	-1.8804
H	-2.4001	-1.0322	-3.9147
H	-3.4193	1.1236	-3.2396
H	2.3542	-4.2935	2.4559
H	3.8026	-5.5223	3.7979
H	4.6222	-0.9928	3.0527
H	5.5003	-4.7722	6.1435
H	-1.8711	-3.9863	-2.4835
H	-2.1865	-5.4997	-4.2162
H	0.6355	-3.6645	-6.3593
H	0.9382	-2.1136	-4.6538
H	-0.1138	-6.2141	-6.7494
H	-1.6229	-6.4581	-6.2759
H	-1.2984	-5.3321	-7.3657
H	-1.3228	3.6127	3.3596
C	-4.7442	2.8854	-1.4732
H	-3.6702	6.2842	-2.5377
H	-2.0897	4.7548	-1.7799
H	-3.7940	4.5378	0.7700
C	-5.6810	3.8022	-1.9203
C	-5.3004	5.0872	-2.3242
C	-3.9510	5.4189	-2.2647
C	-6.3241	6.0822	-2.8192
H	0.8602	1.5335	4.7775
H	2.6003	-1.6982	5.0236
C	0.5242	1.3128	2.7185
C	1.0246	1.0329	3.9870
H	5.9953	-2.2028	4.4736
C	1.8131	-0.1185	3.8877
C	1.8070	-0.5308	2.5162
H	5.9810	-5.6893	4.9234
C	2.3435	-1.6620	1.8725
H	6.7894	-4.3579	5.2906
C	1.9293	-2.0479	0.5889
C	2.2901	-3.2434	-0.1069
C	1.5496	-3.3317	-1.2433
C	0.7141	-2.1765	-1.3070
C	-0.2488	-1.9016	-2.2851
C	-1.0753	-0.7843	-2.2692
C	-2.1341	-0.4955	-3.1773
C	-2.6978	0.6873	-2.8016
C	-2.0181	1.1577	-1.6360
C	-2.3554	2.2977	-0.8873
C	-1.7631	2.5764	0.3525
C	-0.4417	2.1515	2.1372
C	3.3055	-2.5006	2.6375
C	3.0950	-3.8601	2.8636
C	3.9537	-4.5928	3.6765
C	5.0306	-3.9837	4.3162
C	5.2556	-2.6343	4.0629
C	4.4276	-1.9054	3.2276
C	-0.4337	-2.8928	-3.3859
C	-1.3520	-3.9067	-3.2749
C	-1.5300	-4.8185	-4.3090
C	-0.7902	-4.7643	-5.4520
C	0.1194	-3.7390	-5.5655
C	0.3011	-2.8109	-4.5473
C	-0.9720	-5.7820	-6.5583
C	-2.1147	3.4743	1.4227
C	-1.2991	3.1843	2.5121
C	-3.3958	3.2259	-1.4104
C	-3.0065	4.5071	-1.8142
C	-3.2004	4.4504	1.5062
C	2.2921	-0.8020	5.0960
N	1.0207	0.3678	1.8275
N	0.9821	-1.3756	-0.2055
C	5.9003	-4.7680	5.2490
N	-0.9999	0.2457	-1.3309
N	-0.7117	1.8165	0.8121
O	1.7420	1.4598	-0.9442
O	2.3094	-0.2597	6.1925
*