! UKS B3LYP ma-def2-SVP OPT NumFreq
%basis

end 

%scf
  maxiter 200
end

%CPCM SMD TRUE
    SMDSOLVENT "ACETONITRILE"
END

%pal 
	nprocs 16
end
* xyz 0 3
Mn	-0.8195	0.0229	-0.1587
H	-4.9106	-0.5945	-2.7457
H	-3.1954	-1.7006	-4.1913
H	2.2452	-2.4785	-3.1997
H	-2.9432	4.9624	5.2926
H	3.6073	-1.9584	-1.2444
H	-3.4127	3.7320	7.1572
C	0.5983	2.8329	-0.9602
C	2.2301	-0.5945	0.8633
C	0.6076	3.6384	0.2936
H	-5.6053	0.9091	0.2760
C	1.3686	0.0514	1.7700
C	1.4109	2.8376	-3.1499
H	-0.2035	-1.9001	-7.5733
C	1.6876	0.5439	3.0706
C	2.3849	1.8403	-3.2788
H	-0.1336	-4.1799	-7.6231
C	0.5564	1.0763	3.5994
Cl	-2.0483	4.3737	2.7515
H	-0.1220	-5.3980	-5.6678
C	-0.5019	0.9290	2.6561
C	-1.8279	1.3371	2.7894
C	-2.8147	1.1361	1.7964
C	-4.2261	1.3448	1.7700
N	-1.9924	-0.5469	-1.5329
N	0.5967	-1.0118	-0.9353
C	-4.7197	0.8937	0.5572
Cl	-0.4274	-0.0030	-5.5786
Cl	-0.3106	-4.7738	-3.0036
H	1.5971	3.5602	-3.7695
H	0.5377	2.4709	-3.3653
H	2.3151	1.4368	-4.1474
C	3.6554	-0.7402	1.2910
H	3.2580	2.2300	-3.1748
O	-0.0676	1.8603	-1.1389
C	4.5592	0.3307	1.1841
H	2.2491	1.1714	-2.6036
O	1.4070	3.3316	-1.8302
C	5.8580	0.2263	1.6367
C	6.3059	-0.9350	2.1655
C	5.4413	-1.9936	2.3061
C	4.1657	-1.8847	1.8432
C	-2.2675	2.0091	4.0564
C	-2.4212	3.3960	4.1369
C	-3.1321	3.3039	6.3794
C	-3.3211	-0.2462	-1.4143
H	2.5207	0.5071	3.4822
C	-3.0130	1.9278	6.3662
C	-4.0057	-0.6896	-2.5611
H	0.4834	1.4706	4.4387
C	-2.5776	1.3049	5.2120
C	-3.0421	-1.3002	-3.3653
H	-4.7321	1.7222	2.4525
C	-1.7999	-1.2081	-2.7164
C	-0.5186	-1.7206	-3.0386
C	0.6002	-1.5932	-2.1993
C	1.9445	-2.0504	-2.4308
H	1.2168	4.3718	0.1984
H	6.4285	0.9582	1.5781
C	2.7031	-1.7604	-1.3498
C	1.8715	-1.0946	-0.4022
H	-0.2772	3.9775	0.4620
H	7.1930	-1.0164	2.4335
H	5.7261	-2.7807	2.7133
N	0.0309	0.3015	1.5444
H	-3.2226	1.4292	7.1220
N	-2.4740	0.5761	0.5850
H	0.8831	3.0846	1.0274
Cl	4.0314	1.8394	0.4835
Cl	3.1463	-3.2649	2.0092
C	-3.6133	0.4043	-0.1634
C	-0.3560	-2.4186	-4.3466
Cl	-2.4503	-0.4146	5.2243
C	-0.3412	-1.7313	-5.5652
C	-0.2353	-2.3849	-6.7809
C	-2.8496	4.0373	5.2794
C	-0.1759	-3.7396	-6.8058
C	-0.1778	-4.4698	-5.6473
C	-0.2648	-3.7933	-4.4433
*