! UKS B3LYP ma-def2-SVP OPT NumFreq
%basis

end 

%scf
  maxiter 200
end

%CPCM SMD TRUE
    SMDSOLVENT "ACETONITRILE"
END

%pal 
	nprocs 16
end
* xyz 0 1
Mn	-0.0654	-0.5917	-0.2146
H	-3.2170	-3.8966	-1.9933
H	-4.4276	-3.0465	0.0147
H	-2.5238	0.2447	4.0905
H	-0.3656	1.4307	4.3715
H	3.9849	1.9880	1.1264
H	4.5947	0.9868	-1.0618
C	2.7869	4.0539	4.2899
H	2.0469	-2.9156	-4.1392
H	-0.2252	-3.9087	-3.8139
C	3.6636	3.3590	5.0987
C	3.7850	1.9948	4.9932
H	-7.2866	-0.7593	2.4674
H	-7.2436	-2.2328	4.2686
H	-1.9874	3.4926	-4.4458
H	-4.0722	4.5545	-4.6519
H	-5.8483	3.8380	-3.3647
H	-5.5763	2.1297	-1.8162
H	-3.5118	1.0745	-1.5971
H	-1.8242	-0.3693	-3.7846
H	-1.2119	0.5914	-4.9090
H	-0.2416	-0.3194	-4.0180
C	-1.6167	-2.6187	-1.3929
C	-2.8906	-3.2624	-1.3645
C	-3.5522	-2.7941	-0.2585
C	-2.6996	-1.8604	0.4169
C	-2.8286	-1.1938	1.6404
C	6.1924	-0.4773	-4.6353
C	-1.8419	-0.3396	2.1741
C	6.1658	-1.4515	-3.6661
C	-1.8242	0.2811	3.4510
C	-0.6401	0.9382	3.6071
C	0.1139	0.7507	2.4049
C	1.4131	1.2162	2.1208
C	2.1417	0.9220	0.9687
C	3.4498	1.3930	0.6154
C	3.7876	0.8343	-0.5845
C	2.7325	-0.0117	-0.9926
C	2.7173	-0.8429	-2.1246
C	1.6395	-1.7146	-2.4296
C	1.4295	-2.6848	-3.4549
C	0.1733	-3.2313	-3.2795
C	-0.4111	-2.6012	-2.1605
C	-4.0722	-1.4394	2.4256
C	-5.2879	-0.8483	2.0824
C	-6.4669	-1.1519	2.7436
C	-6.4391	-2.0290	3.8051
C	-5.2626	-2.6120	4.2037
C	-4.1114	-2.3259	3.5043
C	2.1341	1.9691	3.1888
C	2.0544	3.3563	3.3510
C	3.0209	1.3322	4.0435
C	3.9077	-0.7620	-3.0307
C	3.9988	0.2217	-4.0141
C	5.1146	0.3728	-4.7962
C	5.0349	-1.5797	-2.8759
C	-2.5870	2.1823	-3.0334
C	-2.7249	3.2092	-3.9182
C	-3.9583	3.8380	-4.0384
C	-4.9994	3.4211	-3.2718
C	-4.8426	2.3996	-2.3571
C	-3.6307	1.7748	-2.2282
C	-1.0677	0.2082	-4.0180
S	-0.9333	1.5062	-2.8338
N	-1.5535	-1.7713	-0.3107
N	-0.6376	-0.0158	1.5363
N	1.7179	0.0760	-0.0388
N	0.5073	-1.6971	-1.6603
Cl	-2.6549	-3.1755	3.9646
Cl	-5.3056	0.3132	0.7907
Cl	0.9602	4.2540	2.3337
Cl	3.1827	-0.3997	3.9440
Cl	2.6518	1.2930	-4.2538
Cl	5.0618	-2.7747	-1.6159
O	-0.9640	0.8870	-1.4516
H	-5.2423	-3.2030	4.9474
H	2.6908	4.9958	4.3774
H	4.1886	3.8299	5.7350
H	4.3796	1.5144	5.5579
H	5.1475	1.0624	-5.4497
H	6.9540	-0.3869	-5.1966
H	6.9122	-2.0263	-3.5394
*