! UKS B3LYP ma-def2-SVP OPT NumFreq
%basis
NewGTO Br "ma-def2-TZVP" end
end 

%scf
  maxiter 200
end

%CPCM SMD TRUE
    SMDSOLVENT "ACETONITRILE"
END

%pal 
	nprocs 16
end
* xyz 0 1
Mn	0.4228	0.1096	-0.1423
Br	4.9245	0.0270	3.7161
H	-1.3505	2.6845	-1.9566
H	0.0904	2.9405	2.1841
H	-2.1229	2.6511	2.9625
H	-1.2973	3.4133	4.1017
C	2.9655	0.0616	-1.3650
C	3.6671	0.0646	-2.5977
C	2.6999	-0.0267	-3.5888
C	1.4073	-0.0779	-2.9989
C	0.0926	-0.2271	-3.5001
C	-1.0561	-0.3258	-2.6993
C	-2.4084	-0.5262	-3.1467
C	-3.1964	-0.5573	-2.0342
C	-2.3929	-0.3926	-0.8654
C	-2.7448	-0.4141	0.4801
C	-1.8839	-0.2916	1.6048
C	-2.2269	-0.3013	2.9989
C	-1.0849	-0.1633	3.7319
C	0.0373	-0.1172	2.7983
C	1.3874	0.0305	3.1052
C	2.3967	0.0705	2.1203
C	3.8242	0.0861	2.2040
C	3.2532	0.0869	0.0264
F	2.9699	0.5752	8.4583
C	-0.0136	-0.3622	-4.9753
C	-0.5138	3.7243	2.2039
C	-0.1376	0.7504	-5.8187
C	-0.2084	0.5901	-7.1929
C	-0.1398	-0.6724	-7.7318
C	-0.0026	-1.7678	-6.9633
C	0.0594	-1.6135	-5.5991
C	-4.2233	-0.4579	0.7827
C	-4.9670	0.6828	0.9081
C	-6.3060	0.6242	1.2496
C	-6.9125	-0.5982	1.4467
C	-6.1954	-1.7374	1.3073
C	-4.8497	-1.6706	0.9894
C	1.8345	0.1477	4.5260
C	1.9474	1.3783	5.1064
C	2.3546	1.5564	6.4243
C	2.6091	0.4424	7.1618
O	-1.0893	3.9321	0.9205
C	2.4918	-0.8149	6.6085
C	2.1111	-0.9522	5.3141
C	-0.7573	3.1654	-0.0237
C	-1.4456	3.4586	-1.3610
C	-1.6603	3.4831	3.1935
Br	3.1421	-0.0109	-5.4192
Br	-3.0877	-0.6449	-4.8677
Br	-5.0544	-0.7741	-2.1709
Br	-3.8851	-0.4091	3.8535
Br	-1.0683	-0.0555	5.5810
N	1.6242	-0.0052	-1.6423
N	-1.0826	-0.2724	-1.3107
N	-0.5050	-0.2056	1.5281
N	2.0912	0.0757	0.7897
O	0.0174	2.2169	0.0355
F	0.1789	-2.6978	-4.8429
F	0.0351	-2.9924	-7.5170
F	-0.2084	-0.7778	-9.0803
F	-0.3124	1.6788	-7.9482
F	-0.1663	1.9564	-5.2774
F	-4.1857	-2.8232	0.8763
F	-6.7952	-2.9175	1.5081
F	-8.2228	-0.6041	1.7658
F	-6.9900	1.7605	1.3829
F	-4.3849	1.8800	0.7364
F	1.9843	-2.1790	4.7892
F	2.7663	-1.8888	7.3655
F	2.4675	2.7743	6.9727
F	1.6554	2.5034	4.4102
C	4.3577	0.0898	0.9063
H	-2.3974	3.6367	-1.2076
H	-1.0295	4.2423	-1.7798
H	0.0107	4.5184	2.4729
H	-2.2911	4.2312	3.1511
Br	5.4887	0.1545	-2.9027
Br	6.1688	0.0468	0.5346
*