! UKS B3LYP ma-def2-SVP OPT NumFreq
%basis
NewGTO Ir "ma-def2-TZVP" end
end 

%scf
  maxiter 200
end

%CPCM SMD TRUE
    SMDSOLVENT "ACETONITRILE"
END

%pal 
	nprocs 16
end
* xyz 0 1
H	-2.2085	4.0628	0.7560
H	-2.8527	2.3002	2.3717
H	-1.0940	-2.9165	3.0908
H	-1.1615	-2.0404	-3.4838
H	-0.6656	0.7162	-3.5051
H	-1.7347	1.1808	-2.4089
H	-2.1322	0.0743	-3.4963
H	-2.8195	-1.4037	-1.9331
H	-2.4807	-0.4188	-0.7193
H	-1.8863	-1.9045	-0.7332
C	-0.9718	2.6108	-0.1885
C	-1.8932	3.1673	0.7543
C	-2.2443	2.2005	1.6497
C	-1.5265	0.9996	1.3016
C	-1.4906	-0.2545	1.9590
C	-0.6787	-1.3765	1.6551
C	-0.6054	-2.6551	2.3196
H	0.5248	-4.3077	1.8551
H	3.6710	-3.2815	-2.7269
C	-0.7297	4.6581	-1.5664
C	-1.5430	7.2995	-2.1082
C	-2.4604	6.2810	-2.0857
C	-2.0567	4.9907	-1.8254
H	2.8336	2.2096	-4.4406
C	-2.4258	-0.3942	3.1155
H	1.2916	4.0162	-3.6935
C	-2.2762	0.3007	4.3056
C	-4.4763	-1.3144	4.0505
C	-3.5475	-1.2251	3.0379
H	3.8751	-1.1759	-4.0508
H	-0.2100	-2.5309	-2.2950
H	0.3341	-1.4826	-3.3750
C	-1.4066	0.4224	-2.9353
C	-2.1318	-1.1358	-1.2889
H	0.8175	1.2092	2.3830
H	1.0510	2.4969	1.4621
H	2.1984	2.0142	2.4687
N	-0.7918	1.2908	0.1855
H	3.1009	-0.8912	0.8372
H	2.0945	-0.7372	2.0721
H	3.4654	0.0885	2.0505
C	0.2843	-3.4135	1.6412
N	-0.9314	-0.6479	-2.0182
H	3.7919	1.9184	0.7641
H	2.6996	2.4607	-0.2729
H	3.5140	1.1225	-0.5963
Ir	0.5691	0.0917	-0.6108
C	2.0515	1.0436	-2.8497
F	-1.9300	8.5560	-2.3578
C	2.2335	2.1617	-3.7057
F	-3.7646	6.5477	-2.3113
C	1.3884	3.1621	-3.2881
F	-3.0010	4.0349	-1.8246
C	0.6779	2.6897	-2.1307
F	-1.2021	1.0992	4.4675
C	-0.3159	3.2527	-1.2791
F	-3.7548	-1.9682	1.9426
C	0.8101	-2.6448	0.5377
C	1.7779	-3.0149	-0.4212
C	2.2299	-4.4423	-0.3673
C	2.3424	-2.2086	-1.4377
C	3.5414	-4.8060	-0.0747
C	3.2357	-2.4597	-2.5378
C	3.9446	-6.1118	0.0038
C	3.3469	-1.2937	-3.2697
C	3.0335	-7.1264	-0.2035
C	2.5324	-0.2972	-2.6536
C	1.7245	-6.8132	-0.4974
C	1.3516	-5.4945	-0.5943
C	0.1669	5.7181	-1.6015
C	-0.2169	7.0148	-1.8680
C	-0.4513	-1.7712	-2.8660
C	1.4807	1.7165	1.8706
C	2.7359	-0.2674	1.5000
C	3.1049	1.6570	0.1152
F	4.4528	-3.8527	0.1757
N	1.1095	1.4072	-1.9298
F	5.2221	-6.4190	0.2923
F	3.4153	-8.4052	-0.1041
N	0.1810	-1.4140	0.5976
F	0.8347	-7.8014	-0.6931
N	1.9787	-0.9067	-1.5532
F	0.0662	-5.2403	-0.9194
N	2.0518	0.8495	0.8034
F	1.4732	5.5056	-1.3324
F	0.6881	8.0099	-1.8621
C	-3.1704	0.2101	5.3356
C	-4.2855	-0.5896	5.2178
F	-2.9816	0.9103	6.4750
F	-5.1717	-0.6789	6.2096
F	-5.5606	-2.0824	3.9121
*