! UKS B3LYP ma-def2-SVP OPT NumFreq
%basis

end 

%scf
  maxiter 200
end

%CPCM SMD TRUE
    SMDSOLVENT "ACETONITRILE"
END

%pal 
	nprocs 16
end
* xyz 0 3
Fe	-0.8529	0.3968	-0.3208
F	5.2429	-3.7927	2.8711
F	-0.4094	1.2347	-5.6696
H	3.0861	0.5438	-3.4011
N	-1.2700	1.7957	-1.5073
H	3.6716	-1.1321	-1.7088
F	3.7086	-1.6054	2.4889
F	5.1266	-5.8713	1.1403
H	1.2255	-2.7231	2.9018
H	-0.7339	-1.8838	4.0980
F	3.5217	-5.7257	-1.0463
C	2.7510	-2.5479	0.5436
F	1.9009	-3.6133	-1.3849
C	-3.9648	1.8720	1.9572
C	3.6151	-2.6214	1.6157
F	2.7422	3.5987	-3.0983
F	-1.0302	0.7882	5.2559
C	-4.0812	2.5629	0.7976
C	4.4387	-3.7419	1.8087
F	3.7509	4.6952	-5.3412
C	-3.0089	2.1405	-0.0507
H	-3.3899	3.9208	-2.5278
C	4.3647	-4.7719	0.9322
F	2.6646	4.0975	-7.7565
H	-1.4428	3.7004	-4.0229
C	1.1443	2.3821	-4.3206
C	3.5570	-4.7281	-0.1831
F	0.5835	2.3538	-7.9160
C	2.2025	3.2482	-4.2744
C	2.7228	-3.6288	-0.3422
F	-4.8078	-1.0077	3.0644
F	-6.0564	-1.2366	5.4229
C	-2.8802	-0.0850	4.0718
C	2.7245	3.8346	-5.4126
C	-2.2576	0.2838	5.2660
C	2.1708	3.5308	-6.6383
C	1.1285	2.6576	-6.7254
H	-4.5291	1.9441	2.6932
C	0.6100	2.0924	-5.5756
H	-4.7355	3.1931	0.5911
C	-4.8184	-0.7689	5.3836
C	-4.1517	-0.6078	4.1810
C	1.2978	0.8461	-2.3287
C	2.5711	0.3078	-2.6644
C	2.8991	-0.6121	-1.7241
N	-2.2647	1.2121	0.6202
C	1.8427	-0.6389	-0.7594
C	1.7510	-1.4231	0.3989
F	-2.2559	0.4703	7.6105
C	0.7758	-1.2917	1.3880
C	-2.4358	2.4725	-1.2969
F	-4.7760	-0.5230	7.7304
C	0.6558	-2.0463	2.6152
C	-2.6562	3.3627	-2.4020
C	-2.8220	1.0101	1.8530
N	0.8798	0.2781	-1.1441
Cl	-1.8289	-1.4165	-1.1969
C	-0.4288	-1.5899	3.2701
C	-1.5804	3.2285	-3.2326
N	-0.2753	-0.4072	1.3223
C	-1.0231	-0.5824	2.4683
C	-0.6986	2.2380	-2.6829
C	0.5465	1.7957	-3.0641
C	-2.2206	0.1269	2.7452
C	-2.8925	0.1213	6.4860
C	-4.1623	-0.3761	6.5292
*