! UKS B3LYP ma-def2-SVP OPT NumFreq
%basis

end 

%scf
  maxiter 200
end

%CPCM SMD TRUE
    SMDSOLVENT "ACETONITRILE"
END

%pal 
	nprocs 16
end
* xyz 0 1
Co	0.3568	-0.5739	0.6916
P	0.2120	1.1618	-0.6731
H	1.2606	0.1408	-3.2557
H	-0.7130	3.3860	-2.1661
H	-1.2521	2.1929	1.6566
H	-2.0102	5.2821	-1.7387
H	3.4494	1.1486	4.0301
H	-2.3870	0.9474	-1.6992
H	1.7820	2.6480	1.0817
H	0.6602	-3.5712	-3.2763
H	3.8593	3.7054	1.0641
H	1.2774	1.6606	5.0942
H	-2.0720	-0.4558	-5.4642
H	-3.8122	0.1058	3.3473
H	-2.5508	4.0949	2.0610
H	-3.3832	0.2210	-3.6751
H	-4.5188	-1.2521	1.4170
H	5.1472	3.7127	-0.8650
H	5.1404	-0.1290	1.4224
H	5.0996	-1.2973	-0.7523
H	-1.7124	-3.6354	-2.6573
H	2.2511	1.6752	-2.7817
H	0.2416	-0.5097	-5.2584
H	4.3292	2.7399	-2.7918
C	3.0174	-0.2577	1.3780
C	4.3686	-0.4193	0.9523
C	4.3431	-1.0596	-0.2281
C	2.9601	-1.3290	-0.5732
C	2.3275	-2.0091	-1.5957
C	0.9515	-2.3002	-1.5956
C	0.2612	-3.1234	-2.5393
C	-1.0276	-3.1570	-2.2050
C	-1.2122	-2.3307	-1.0412
C	-2.3867	-2.0190	-0.3507
C	-2.4732	-1.2321	0.8057
C	-3.6341	-0.9619	1.6064
C	-3.2495	-0.2282	2.6581
C	-1.8294	-0.0182	2.5755
C	-1.0234	0.6542	3.5026
C	0.3546	0.7421	3.3938
C	1.4042	1.2274	4.2590
C	2.5891	0.9517	3.6821
C	2.3220	0.3059	2.4423
C	3.1211	-2.4773	-2.7993
C	-3.6816	-2.5911	-0.8509
C	-1.7369	1.3514	4.6264
C	1.8264	2.0070	-0.8378
C	2.3060	2.6455	0.2891
C	3.5366	3.2796	0.2767
C	4.2942	3.2927	-0.8610
C	3.8141	2.7136	-1.9946
C	2.5782	2.0748	-1.9855
C	-0.4586	0.6546	-2.2955
C	0.3162	0.1860	-3.3494
C	-0.2902	-0.2122	-4.5307
C	-1.6618	-0.1845	-4.6518
C	-2.4365	0.2225	-3.5946
C	-1.8492	0.6527	-2.4247
C	-0.8648	2.5894	-0.2869
C	-1.0877	3.5265	-1.3054
C	-1.8596	4.6491	-1.0456
C	-2.4019	4.8559	0.1951
C	-2.1747	3.9490	1.1995
C	-1.4095	2.8166	0.9577
N	-1.3868	-0.6420	1.4112
N	0.9706	0.2045	2.2879
N	2.1994	-0.8203	0.4469
N	0.0282	-1.8427	-0.6670
F	3.1909	-3.7974	-2.8765
F	4.3828	-2.0456	-2.7945
F	2.5931	-2.0791	-3.9523
F	-3.6298	-3.1672	-2.0354
F	-4.6583	-1.7830	-0.8921
F	-4.0949	-3.5770	-0.1265
F	-0.9350	2.0340	5.4382
F	-2.4291	0.5404	5.3998
F	-2.6088	2.2498	4.1615
H	-2.9316	5.6263	0.3583
*