! UKS B3LYP ma-def2-SVP OPT NumFreq
%basis

end 

%scf
  maxiter 200
end

%CPCM SMD TRUE
    SMDSOLVENT "ACETONITRILE"
END

%pal 
	nprocs 16
end
* xyz 0 1
H	-7.1400	2.6738	-1.1138
H	-9.2311	5.4911	-1.8196
H	-8.6215	3.9957	-2.4932
H	-8.8982	4.2125	-0.8189
Fe	0.3065	0.6815	-0.5499
H	-0.5632	3.1397	-4.7310
H	-2.6579	3.8440	-3.3457
H	-4.1761	1.5577	1.6119
H	-3.0688	-0.1435	3.1179
H	1.3314	-3.1451	2.3556
C	-6.3922	3.0704	-1.1137
H	3.2059	-3.1126	0.6921
C	-6.3407	4.4400	-1.2770
H	3.8956	-0.3061	-3.9120
H	2.2603	1.4927	-5.0757
H	-5.2712	1.5360	-0.8098
C	-8.7013	4.6112	-1.6850
H	-3.0511	4.9060	-1.0374
H	-2.6574	-2.5816	2.8487
H	-3.0624	-3.8169	4.7704
H	0.7603	-1.3680	4.2446
H	3.7413	-2.9825	-3.2132
H	-5.0792	6.1412	-1.4321
C	0.0029	1.9066	-3.0703
O	-7.4288	5.2440	-1.4964
C	-0.7751	2.8385	-3.8294
C	-1.8597	3.1343	-3.0854
C	-1.7994	2.3996	-1.8587
C	-2.7074	2.2458	-0.8260
C	-2.4889	1.3280	0.2537
C	-3.3300	1.1383	1.3712
C	-2.7510	0.2010	2.1735
C	-1.5344	-0.2021	1.5601
C	-0.6179	-1.1729	2.0396
C	0.5548	-1.5197	1.3823
C	1.4672	-2.5783	1.7156
C	2.4512	-2.5924	0.8046
C	2.1920	-1.5533	-0.1316
C	2.9604	-1.2748	-1.2916
C	2.5608	-0.3668	-2.2470
C	3.0850	-0.0211	-3.5191
C	2.2365	0.9054	-4.1079
C	1.1856	1.1232	-3.1814
C	-3.9835	3.0054	-0.8916
C	-5.2127	2.3704	-0.9229
C	-5.1278	5.1118	-1.2410
C	-3.9617	4.3902	-1.0643
C	-0.9255	-1.8827	3.3091
C	-2.0847	-2.6369	3.5000
C	-2.2795	-3.3607	4.6487
C	-0.0002	-1.8480	4.3588
H	5.2649	-1.1079	0.2029
C	4.2808	-1.9607	-1.4754
H	7.2787	-2.0615	-0.2693
H	5.9773	-4.0119	-3.5546
C	4.4958	-2.8460	-2.5410
H	8.7675	-3.9361	-0.2448
N	1.1911	1.8210	0.3531
N	-0.6217	1.6725	-1.8646
H	9.8252	-4.2720	-1.5858
N	-1.3698	0.4969	0.3719
N	0.9987	-0.9183	0.2053
N	1.3770	0.3441	-2.0562
H	9.2855	-2.4841	-1.3082
O	1.8725	2.4636	0.8840
H	0.4587	-2.4624	6.1648
H	-0.9218	-4.8029	8.4839
C	5.3361	-1.7136	-0.6163
C	6.5887	-2.2944	-0.7904
H	0.3693	-4.4670	7.3793
C	6.7697	-3.1602	-1.8534
C	5.7256	-3.4550	-2.7274
H	-0.5323	-3.1884	8.0634
C	9.0529	-3.6143	-1.1798
O	7.9520	-3.8353	-2.1069
C	-1.3328	-3.3455	5.6597
C	-0.1929	-2.5708	5.5182
C	-0.6423	-4.1127	7.7991
O	-1.6121	-4.1311	6.7522
*