! UKS B3LYP ma-def2-SVP OPT NumFreq
%basis

end 

%scf
  maxiter 200
end

%CPCM SMD TRUE
    SMDSOLVENT "ACETONITRILE"
END

%pal 
	nprocs 16
end
* xyz 0 3
Co	-0.7448	-0.0653	-0.0811
C	-1.6960	-3.9802	3.8957
C	0.2766	-2.4104	-1.5134
H	1.0922	-1.9938	-1.3576
C	0.2803	-3.5991	-2.2096
C	-0.8768	-4.2172	-2.4510
H	1.0775	-3.9802	-2.4990
C	-1.9789	-3.6722	-1.9385
H	-0.9209	-4.9853	-2.9707
N	-2.0953	0.6226	-1.1716
C	-1.9238	-2.4953	-1.2811
H	-2.7944	-4.1125	-2.0265
N	0.5900	0.5634	-1.2798
C	-0.4470	1.6968	2.2485
H	-2.7209	-2.1478	-0.9500
C	-0.2545	2.8856	2.9293
H	-0.4691	0.8971	2.7239
N	0.4585	-0.8485	1.1597
N	-2.2169	-0.5562	0.9739
H	-0.1421	2.8698	3.8504
C	-0.2307	4.0565	2.2687
N	-0.8228	-1.8081	-1.0672
C	-0.4147	4.0348	0.8967
H	-0.0980	4.8582	2.7198
N	-0.6076	1.6731	0.9142
C	-0.5804	2.8323	0.2645
H	-0.4176	4.8266	0.4093
H	-0.6821	2.8244	-0.6597
F	3.8994	1.3434	-2.2616
F	3.6404	-1.4053	2.6078
F	-5.5653	1.0432	-1.6281
F	-3.8946	2.1036	-3.8188
F	1.8691	2.1293	-4.1934
F	3.5523	2.3643	1.3069
F	1.4316	-2.6414	4.0612
F	6.1762	2.7829	1.7854
F	-4.2641	-2.0964	3.3913
F	-1.1450	5.7725	-5.2954
F	7.9869	0.8734	1.1121
F	-5.7177	-0.7620	1.1835
F	7.1894	-1.2809	-0.1315
F	-1.1872	4.2698	-3.0907
F	4.5882	-1.6857	-0.6239
F	-0.8507	4.6252	-7.7082
C	-3.3825	0.4568	-0.7311
F	-0.5965	1.9516	-7.9001
C	-4.2377	1.0097	-1.7091
F	-0.6182	0.4133	-5.6615
C	-3.4512	1.4974	-2.7099
C	-2.0821	1.2387	-2.3931
C	-0.8798	1.5053	-3.0459
C	0.3681	1.1815	-2.4941
C	1.6498	1.5389	-3.0168
C	2.5759	1.1953	-2.1328
F	-1.1119	-0.8149	5.3467
C	1.9216	0.5575	-1.0017
F	-1.3551	-2.3275	7.5726
C	2.5226	0.0460	0.1219
F	-1.8279	-4.9537	7.3630
C	1.8232	-0.6727	1.1192
F	-2.1625	-6.0358	4.9178
C	2.3455	-1.3461	2.2615
F	-1.8356	-4.5509	2.7092
C	1.3269	-1.9089	2.9507
C	0.1018	-1.5830	2.2742
C	-1.2045	-1.8378	2.7486
C	-2.3106	-1.3244	2.0883
C	-3.7216	-1.4606	2.3326
C	3.9847	0.2514	0.3514
C	-4.4184	-0.8169	1.3588
C	4.4240	1.4362	1.0042
C	-3.4394	-0.2403	0.4911
C	5.7575	1.6455	1.2439
C	6.6611	0.7016	0.8930
C	-0.9176	2.2794	-4.3240
C	-1.0656	3.6754	-4.2895
C	6.3158	-0.4121	0.2495
C	4.9442	-0.5957	0.0243
C	-1.0164	4.4455	-5.3943
C	-0.8842	3.9124	-6.5649
C	-0.7497	2.4926	-6.7527
C	-0.7927	1.7047	-5.5595
C	-1.3996	-2.6612	3.9613
C	-1.3040	-2.1280	5.2390
C	-1.4289	-2.8804	6.3647
C	-1.6776	-4.2231	6.2493
C	-1.8466	-4.7681	5.0410
*