! UKS B3LYP ma-def2-SVP OPT NumFreq
%basis
NewGTO Sn "ma-def2-TZVP" end
end 

%scf
  maxiter 200
end

%CPCM SMD TRUE
    SMDSOLVENT "ACETONITRILE"
END

%pal 
	nprocs 16
end
* xyz 0 3
H	-2.3426	-4.8211	-2.2102
H	-1.0412	-5.5477	-0.2425
H	-0.4679	4.1406	0.6739
H	-1.4905	4.2240	-1.5657
H	-3.3360	0.0715	-4.7981
H	-3.2852	-2.3560	-4.3158
C	-1.4561	-2.9426	-1.9351
C	-1.7655	-4.2936	-1.7068
C	-1.0577	-4.6892	-0.5985
Sn	0.1574	-0.5940	-1.0773
C	-0.3566	-3.5670	-0.0914
H	1.3529	-2.3264	3.5948
C	-0.2818	-5.1790	2.7081
H	1.3260	0.1038	3.8368
H	1.7080	0.8062	-2.6406
H	2.2170	-0.6767	-2.6779
H	2.7170	1.0915	-0.5174
H	3.7889	0.7335	-1.6062
H	5.1089	-2.2456	1.0078
H	5.4625	-1.1772	2.0991
H	4.0199	-1.7908	2.0381
C	-0.2751	3.1206	3.4268
C	-0.2714	2.0657	0.4041
C	-0.6115	3.4140	0.1140
C	-1.1855	3.4624	-1.1274
C	-1.2274	2.1007	-1.6266
C	-1.8186	1.6728	-2.8413
C	-2.2634	2.7331	-3.7821
C	0.3513	-3.3086	1.1114
C	-1.3313	3.4678	-4.5228
C	0.6548	-4.4739	2.0039
C	-1.7005	4.4608	-5.3938
C	-3.0325	4.7865	-5.5447
C	0.0089	-6.2340	3.5349
C	-3.9825	4.0814	-4.8440
C	-3.5894	3.0695	-3.9726
C	1.3200	-6.6242	3.6690
C	-1.9973	0.3245	-3.1862
C	2.3112	-5.9622	3.0064
C	-2.8449	-0.3403	-4.1239
C	1.9838	-4.9072	2.1781
C	-2.8135	-1.6939	-3.8636
C	0.6473	-2.0519	1.6149
C	-1.9180	-1.8850	-2.7685
C	1.0958	-1.7181	2.9382
C	1.0808	-0.3672	3.0731
C	0.6264	0.2141	1.8495
C	0.3520	1.5490	1.5655
C	0.6936	2.5447	2.6324
C	1.9890	2.9726	2.8393
C	2.3328	3.9253	3.7885
C	1.3297	4.4608	4.5581
N	-0.5883	-2.5411	-0.9599
C	0.0097	4.0814	4.3763
N	-0.6496	1.2984	-0.6506
N	-1.4449	-0.6468	-2.4133
F	-1.5757	-4.8006	2.6025
F	-0.9478	-6.8556	4.2269
F	-0.9448	4.6309	5.1232
F	-1.5615	2.7568	3.2858
C	1.9135	0.0338	-2.0927
C	3.0265	0.3918	-1.1146
F	-0.7916	5.1310	-6.0888
C	3.4525	-0.7951	-0.3059
F	-3.3950	5.7319	-6.3886
C	4.7733	-1.5055	1.5173
F	-5.2592	4.3930	-4.9902
F	-4.5424	2.4459	-3.2855
N	0.3872	-0.8360	0.9811
O	3.0355	-1.9068	-0.4445
O	4.3630	-0.4498	0.6151
F	1.6325	-7.6517	4.4732
F	3.5878	-6.3414	3.1387
F	2.9719	-4.2753	1.5420
F	2.9854	2.4554	2.1129
F	3.5871	4.2988	3.9757
F	1.6220	5.4114	5.4732
F	-0.0411	3.1728	-4.3801
*