! UKS B3LYP ma-def2-SVP OPT NumFreq
%basis
NewGTO Sn "ma-def2-TZVP" end
end 

%scf
  maxiter 200
end

%CPCM SMD TRUE
    SMDSOLVENT "ACETONITRILE"
END

%pal 
	nprocs 16
end
* xyz 0 1
Sn	-0.5282	-1.1714	-0.1724
C	0.3322	-3.0555	0.2416
H	3.5536	1.4991	-1.6806
H	-2.5096	-1.3345	-4.9656
N	-1.6403	-1.1510	-1.9348
H	2.5507	0.7640	-3.8138
N	-2.5234	-1.0502	0.4325
N	0.7632	0.0271	-1.2831
H	-4.3903	-1.7319	-3.3865
H	-5.5682	-1.6074	-0.2120
H	-5.1374	-1.0720	2.1821
N	-0.2358	0.1308	1.4185
H	-0.5536	1.1339	4.4275
F	2.5351	3.7944	0.7448
H	1.6151	1.8071	3.4026
F	2.0825	-2.0476	-4.7471
F	2.8047	-1.8926	-7.3272
F	4.0680	-0.5780	1.5670
F	4.8522	4.7804	1.6966
F	1.4424	-0.2600	-9.0227
F	-0.6111	1.2461	-8.1014
F	-1.3290	1.1282	-5.5329
F	-4.5681	1.2756	3.5113
F	-5.5357	1.3308	6.0144
H	0.3537	-3.5918	-0.5766
F	-1.2959	-1.8422	4.8768
H	-0.2036	-3.5167	0.9214
H	1.2449	-2.9310	0.5761
C	1.8340	0.6861	-0.7177
C	2.7230	1.0483	-1.7783
C	2.1754	0.6385	-2.9503
C	-1.2815	-1.0217	-3.2444
C	0.9286	-0.0204	-2.6584
C	-2.4585	-1.3069	-4.0181
C	-0.0044	-0.5291	-3.5857
C	-3.4924	-1.5323	-3.1507
C	-2.9768	-1.4144	-1.8334
C	-3.4700	-1.3554	-0.4946
C	-4.7255	-1.4039	0.1773
C	-4.4857	-1.1025	1.4925
C	-3.0858	-0.8419	1.6516
C	-2.3131	-0.3218	2.7165
F	6.7852	3.0898	2.6007
C	-1.0024	0.1859	2.5762
F	6.3808	0.4132	2.5164
C	-0.2669	0.9314	3.5462
C	0.9286	1.3041	2.9802
F	-2.2635	-1.7510	7.3742
C	0.9521	0.7954	1.6329
F	-4.3889	-0.1802	7.9650
C	1.9386	0.9922	0.6538
C	3.2273	1.5780	1.1182
C	3.4796	2.9462	1.1669
C	-2.3419	-1.0464	5.1184
C	4.2442	0.7498	1.5728
C	1.4083	-1.2004	-5.5493
C	0.3591	-0.4559	-5.0269
C	1.7873	-1.1339	-6.8700
C	-4.5020	0.5292	5.7157
C	4.6629	3.4521	1.6472
C	1.1049	-0.3237	-7.7328
C	5.6456	2.5992	2.1079
C	5.4410	1.2442	2.0556
C	0.0589	0.4331	-7.2630
C	-0.3099	0.3637	-5.9314
C	-2.8946	-0.2885	4.0918
C	-3.9851	0.4921	4.4365
C	-2.8287	-1.0045	6.4097
C	-3.9204	-0.2182	6.7143
*