! UKS B3LYP ma-def2-SVP OPT NumFreq
%basis

end 

%scf
  maxiter 200
end

%CPCM SMD TRUE
    SMDSOLVENT "ACETONITRILE"
END

%pal 
	nprocs 16
end
* xyz 0 3
Zn	-1.8816	0.2684	0.2077
C	2.7909	0.5768	-5.6821
F	3.2042	2.1634	6.1181
C	2.2922	-0.6508	-5.4335
F	1.1656	2.1391	4.3797
H	-5.6447	-1.7506	2.7335
C	1.4831	-0.8623	-4.3267
H	-6.4320	-1.9986	0.3853
C	1.7093	-0.0499	3.6362
H	-3.6105	-0.8045	-4.3634
C	2.5024	-1.1148	3.8190
H	-1.2340	-0.3724	-4.7235
C	3.5521	-1.1452	4.7547
C	3.8044	0.0140	5.4387
H	2.9519	0.1341	-1.2594
H	3.1230	0.0931	1.2138
C	2.9896	1.0773	5.3403
C	-3.9614	-0.8075	1.9129
H	-0.7440	-0.7177	5.1047
C	1.9848	1.0590	4.4216
C	-2.0098	3.0868	-1.3800
C	-5.2025	-1.4631	1.9677
H	-3.1233	-1.2319	4.7901
C	-5.6389	-1.6016	0.6641
H	-6.3755	0.2056	-1.7992
C	-4.6457	-1.0235	-0.1656
H	-5.4722	0.3866	-3.0703
C	-4.6080	-0.9140	-1.6707
H	-5.1053	1.1214	-1.7352
N	-1.7633	-0.0697	2.1761
C	-3.2233	-0.6858	-2.2829
H	-4.6544	-2.9585	-1.9914
C	-2.9740	-0.6721	-3.6996
N	-3.6772	-0.5367	0.5785
H	-5.1517	-2.1507	-3.2396
N	-2.0721	-0.4698	-1.6419
C	-1.6661	-0.4348	-3.9022
H	-6.0884	-2.3241	-1.9946
N	0.1216	0.0976	0.1760
C	-1.0572	-0.2994	-2.5947
H	-1.1181	2.8556	-1.6493
C	0.2652	-0.0469	-2.2804
H	-2.0330	4.0071	-1.1036
C	0.8669	0.0824	-0.9731
H	-2.6115	2.9590	-2.1160
C	2.2443	0.1098	-0.6555
C	2.3386	0.0931	0.7159
C	1.0119	0.0748	1.2311
O	-2.4302	2.2106	-0.2311
C	0.6045	-0.0180	2.6238
C	-0.6903	-0.1640	3.0552
C	2.5763	1.5899	-4.7895
C	-1.2224	-0.6250	4.3131
F	1.5542	2.3992	-2.8466
C	-2.5390	-0.9003	4.1482
F	3.0954	2.8190	-4.9972
C	1.7832	1.3739	-3.6828
C	-2.8594	-0.5702	2.7587
F	3.4941	0.8171	-6.7886
C	-5.4736	0.3197	-2.1106
F	2.5126	-1.6381	-6.3052
C	-5.1793	-2.2100	-2.2823
F	0.9858	-2.0944	-4.1444
C	1.1975	0.1463	-3.4247
F	2.3067	-2.1918	3.0647
F	4.3482	-2.1705	4.8265
F	4.8542	0.0352	6.3474
*