! UKS B3LYP ma-def2-SVP OPT NumFreq
%basis
NewGTO Sn "ma-def2-TZVP" end
end 

%scf
  maxiter 200
end

%CPCM SMD TRUE
    SMDSOLVENT "ACETONITRILE"
END

%pal 
	nprocs 16
end
* xyz 0 3
H	2.7256	-2.0286	-4.1994
H	5.9923	1.7851	2.7518
H	-4.6464	2.1907	-2.1234
H	3.4759	-3.3626	-5.9202
N	-2.3700	0.9588	-0.3339
C	-4.5140	6.2102	5.0921
N	-0.0969	0.9213	1.2199
H	3.4355	-2.0436	2.5274
N	0.9428	-1.0115	-0.6778
H	5.4968	-2.0897	3.6113
Sn	-0.9175	-0.4563	-0.0547
N	-1.4612	-0.7130	-2.0215
N	2.6535	-5.8223	-8.1609
H	-4.4132	3.2963	0.0830
H	-1.5150	-1.4608	-5.0718
H	-3.3168	0.1154	-4.4250
H	-0.1982	2.8720	3.7035
Cl	-1.8067	-2.1566	1.2624
H	-4.4310	2.3342	2.8541
C	1.2143	1.6091	2.9427
H	-5.4309	3.8778	4.2562
C	2.1598	-0.0955	1.2838
C	2.0675	-0.9067	0.1300
H	-1.2375	4.7476	2.4618
C	3.0771	-1.7116	-0.4616
H	-0.8375	-3.8867	-4.3256
C	2.5738	-2.2881	-1.5917
H	-0.1244	-5.1421	-6.1405
N	-4.9702	6.9914	5.7827
C	-3.0514	0.9465	-1.5246
C	-4.0292	1.9748	-1.4624
C	-3.8905	2.5950	-0.2340
C	-2.8101	1.9760	0.4682
C	-2.1007	2.3541	1.6323
C	-0.8222	1.8600	1.9668
H	-2.2267	6.2963	3.8685
C	0.0255	2.2605	3.0408
C	3.4811	-0.0955	1.9964
C	1.1661	0.7618	1.7924
C	4.2463	1.0226	2.0388
C	5.4776	1.0114	2.7112
C	-0.8739	-1.3971	-3.0475
C	5.9121	-0.1180	3.2977
C	-1.6602	-1.1139	-4.2211
C	5.1768	-1.3035	3.2307
C	-2.6653	-0.2366	-3.8615
C	3.9491	-1.2698	2.5778
C	-2.5247	0.0292	-2.4782
C	1.2271	-1.8289	-1.7752
C	0.3855	-2.0236	-2.9001
C	7.1945	-0.1530	3.9829
C	-2.7206	3.3649	2.5196
C	-3.9864	3.1241	3.0611
C	-4.5883	4.0463	3.9029
C	-3.9169	5.2331	4.2154
C	-2.6647	5.5001	3.6697
C	-2.0733	4.5692	2.8271
N	8.1980	-0.2191	4.5184
C	0.8760	-2.8385	-4.0463
H	1.9346	1.6990	3.5237
H	3.9401	-1.8264	-0.1331
C	0.0251	-3.7732	-4.6521
H	3.0278	-2.8784	-2.1497
C	0.4539	-4.5369	-5.7363
C	2.1618	-2.6725	-4.5639
C	2.6037	-3.4550	-5.6100
C	1.7516	-4.3859	-6.2073
C	2.2396	-5.1871	-7.3025
H	3.9554	1.8000	1.6195
*