! UKS B3LYP ma-def2-SVP OPT NumFreq
%basis
NewGTO Br "ma-def2-TZVP" end
end 

%scf
  maxiter 200
end

%CPCM SMD TRUE
    SMDSOLVENT "ACETONITRILE"
END

%pal 
	nprocs 16
end
* xyz 0 3
F	0.4660	-7.2960	-5.2806
F	2.7631	-5.9056	-4.8950
O	-3.0541	-0.4404	-0.4151
F	2.7431	-3.6509	-3.3700
F	-1.8729	-4.2383	-2.5763
F	-1.8513	-6.4527	-4.1568
C	-0.4860	3.2771	0.8747
C	-0.3705	3.1467	-0.4963
C	-0.4865	4.0866	-1.5934
F	2.5799	-1.3834	4.3311
C	-0.2902	3.4171	-2.7558
F	-1.8834	-2.6113	3.5647
Br	0.1618	0.6897	5.5378
C	-0.7850	-2.6162	4.3310
C	-0.8357	-3.2679	5.5554
C	0.2914	-3.2744	6.3370
C	0.1102	0.7843	-3.0705
C	1.4417	-2.6451	5.9083
C	0.1555	0.2291	-4.3636
C	1.4746	-2.0014	4.7210
C	0.1890	-1.1420	-4.2429
Br	-0.4708	3.7351	4.3543
C	0.2504	-1.4510	-2.8282
Br	-0.7663	5.9442	-1.5142
C	0.4144	-2.6274	-2.1293
Br	-0.3279	4.2098	-4.4465
C	0.5109	-2.6950	-0.7316
C	0.8292	-3.8537	0.0796
C	0.8199	-3.4820	1.3873
C	0.4987	-2.0706	1.4346
C	-0.8170	4.6337	1.4064
C	0.3454	-1.2563	2.5765
C	0.0923	0.1245	2.5589
C	-0.0239	0.9999	3.6993
C	-1.3583	7.1684	2.3634
C	-0.2817	2.2568	3.2285
C	-0.1151	6.8932	1.9359
C	-0.3066	2.1908	1.7784
C	0.1698	5.6106	1.4782
C	-2.0913	4.9652	1.8334
C	-2.3805	6.2221	2.3201
C	-0.0753	2.0428	-2.4323
C	0.4374	-3.8956	-2.9405
Br	0.2128	1.1210	-5.9967
C	-0.7203	-4.6358	-3.1531
Br	0.1766	-2.2956	-5.7184
C	-0.7104	-5.7833	-3.9322
Br	1.2920	-5.5792	-0.4748
C	0.4341	-6.1727	-4.5415
Br	1.3831	-4.6452	2.7345
C	1.6051	-5.4984	-4.3220
C	1.6075	-4.3429	-3.5420
C	0.3628	-1.9419	3.8862
F	0.2560	-3.8811	7.5382
F	2.5265	-2.6516	6.7117
F	-1.9464	-3.9004	5.9431
N	0.1862	-0.2328	-2.1579
N	0.3628	-1.6264	0.1391
F	-1.6367	8.4091	2.8565
N	-0.0559	0.8760	1.4027
F	0.8455	7.8298	1.9348
N	-0.1277	1.9156	-1.0774
F	1.4009	5.3643	1.0397
F	-3.0642	4.0512	1.7896
F	-3.6058	6.5230	2.7738
Fe	-0.3139	0.1353	-0.3625
N	-1.9298	-0.1604	-0.3881
*