! UKS B3LYP ma-def2-SVP OPT NumFreq
%basis
NewGTO Ta "ma-def2-TZVP" end
end 

%scf
  maxiter 200
end

%CPCM SMD TRUE
    SMDSOLVENT "ACETONITRILE"
END

%pal 
	nprocs 16
end
* xyz 0 3
H	-5.0952	1.6210	-1.4358
N	-2.0625	0.6757	-1.1621
N	0.1548	-0.8649	-1.2294
N	0.6915	0.0871	1.2643
N	-1.6029	1.5013	1.0419
Cl	1.0213	2.9033	0.3772
Cl	0.3805	1.8315	-2.5260
C	3.4103	-2.3155	0.1551
C	3.3538	-3.7027	0.0936
H	-1.1325	0.4061	7.4830
C	4.4911	-4.4723	0.2761
H	0.4678	4.0202	6.7114
C	5.7178	-3.8687	0.5095
C	5.8055	-2.4907	0.5449
Ta	-0.1844	0.9983	-0.3802
C	4.6509	-1.7293	0.3812
H	0.2220	3.3593	8.9856
C	8.0359	-4.1440	0.9665
H	-4.3659	0.1158	-3.2805
H	-0.0566	1.8197	9.3205
H	0.2843	-2.7533	-3.8170
H	-1.2816	2.8187	9.0770
H	2.2582	-3.0131	-2.3503
H	1.9575	0.2380	4.2024
H	-2.9024	2.7137	3.6792
H	-4.4446	2.7671	1.7258
H	-3.8562	-4.1860	-5.1948
H	-2.5714	-1.0647	-7.3864
H	-3.2982	-2.8832	-2.0906
H	-2.0986	-3.8593	-2.5046
H	-3.6088	-4.2548	-2.8575
H	-4.8928	-3.0685	-7.7501
H	-3.8644	-4.2930	-7.6913
O	6.7732	-4.7208	0.6893
H	-3.4916	-2.9749	-8.5192
H	-1.2800	0.6487	-6.4823
H	-0.5179	0.3698	-5.1052
H	-1.9355	1.1129	-5.0971
H	-2.0462	-0.4401	4.3410
H	-1.7716	-1.0628	5.7903
H	-0.6359	-1.1258	4.6639
H	0.0376	4.1482	3.3997
H	1.5117	3.5752	3.6460
H	0.9455	4.7518	4.5711
H	2.5221	-4.1287	-0.0763
H	3.2751	-1.1889	2.6677
C	-2.8754	1.8487	0.6440
C	-3.1450	1.3681	-0.6481
C	-4.2381	1.2214	-1.5286
C	-3.8317	0.3966	-2.5454
C	-2.4731	0.0291	-2.3151
C	-1.6684	-0.9043	-2.9463
C	-0.4254	-1.3150	-2.4316
C	-0.8121	1.0480	6.8613
C	0.4375	-2.2853	-3.0049
C	-0.3401	2.2686	7.3308
C	1.5208	-2.4343	-2.1940
C	1.3569	-1.5809	-1.0769
C	2.1689	-1.4932	0.0633
C	1.8256	-0.7310	1.1832
C	-0.3664	2.5952	8.8092
C	2.4754	-0.7247	2.4500
C	1.7502	0.0604	3.2928
C	0.6309	0.5721	2.5811
C	-0.3795	1.3771	3.1301
C	-1.4808	1.7973	2.3931
C	-2.7082	2.3926	2.8078
C	-3.5588	2.4233	1.7347
C	-2.2035	-1.5614	-4.1894
C	-2.8516	-2.7973	-4.0953
C	-3.4031	-3.3531	-5.2529
C	-3.3072	-2.7209	-6.4835
C	-2.6468	-1.5041	-6.5479
C	-2.0904	-0.9062	-5.4214
C	-2.9754	-3.5117	-2.7699
C	-3.9447	-3.3168	-7.7201
H	4.4305	-5.4200	0.2417
C	-1.3955	0.4214	-5.5367
H	6.6446	-2.0657	0.6789
C	-0.3401	1.6822	4.5960
H	4.7124	-0.7820	0.4245
C	-0.8269	0.7462	5.5043
H	8.3104	-3.5805	0.2127
H	8.6972	-4.8546	1.1003
H	7.9736	-3.5957	1.7762
C	0.1392	3.1836	6.4036
C	0.1540	2.9161	5.0389
C	-1.3677	-0.5891	5.0336
C	0.7112	3.9362	4.0796
*