! UKS B3LYP ma-def2-SVP OPT NumFreq
%basis
NewGTO Ce "ma-def2-TZVP" end
end 

%scf
  maxiter 200
end

%CPCM SMD TRUE
    SMDSOLVENT "ACETONITRILE"
END

%pal 
	nprocs 16
end
* xyz 0 1
C	-2.1729	7.4322	1.8254
C	-2.5974	8.8353	2.1638
C	-0.8779	6.9990	2.0445
H	-1.8593	-7.7612	1.1292
H	-4.9316	-6.0996	-0.8648
H	0.1170	-6.5603	1.5587
H	-3.9040	-9.0407	0.8195
H	-5.1325	-8.3916	0.0251
H	-3.8641	-8.9458	-0.7777
H	-1.8053	9.4108	2.2204
H	-3.0645	8.8366	3.0240
C	-2.2757	-6.9959	0.7530
C	-1.6221	-5.7651	0.8406
C	-3.5066	-7.1445	0.1404
C	-4.0969	-6.0123	-0.4196
C	-0.2717	-5.6640	1.4731
Ce	0.6678	-0.1756	0.7201
H	-0.4974	-2.3659	-3.8610
B	4.3508	-0.4435	1.1648
H	-2.7095	1.3591	4.7490
H	-2.9319	-3.8052	2.9633
H	-2.2753	3.5724	3.6786
C	-4.1592	-8.4989	0.0440
H	2.1225	3.0731	-0.5344
H	-1.2084	-4.1473	-2.2696
H	-2.9229	-1.8079	4.4989
H	-0.7572	4.6097	-1.4371
H	1.8342	-3.0038	-1.5189
H	4.1519	-3.9750	-1.7382
H	-0.3633	3.1043	-3.3667
H	5.1713	-0.8717	3.9328
H	5.5988	-2.6106	-0.2411
H	1.1886	-1.0277	4.3260
H	4.4880	3.8969	-0.3621
H	5.8007	2.0032	0.5951
H	0.3097	-5.1085	0.9116
H	-0.3547	-5.2583	2.3595
H	-3.9601	6.8068	1.1238
H	-3.6731	-3.2010	-1.6752
H	-5.0848	-3.8389	-1.2741
H	-4.3203	-2.8790	-0.2471
H	-4.5806	4.7146	0.3415
H	-3.4108	3.9032	-0.3904
H	-3.8562	3.5025	1.0956
H	5.3416	-0.5121	1.2831
H	1.4641	5.3363	1.2101
H	1.3445	5.8206	2.7300
H	0.9609	4.3176	2.3381
H	2.1432	1.7086	-6.2419
H	1.6553	1.5027	-3.9699
H	-1.6858	-0.5571	-4.8417
H	-1.1946	-0.4010	-7.1022
H	2.7221	0.7924	-8.3319
H	2.0067	1.1694	-9.7124
H	1.9992	2.2105	-8.4967
C	-1.0279	3.3427	1.0774
C	-1.6841	-2.6480	1.6786
C	-0.3092	0.2918	-2.6902
C	-0.7068	2.8708	-0.2111
C	-0.6627	-2.2573	-2.9310
C	-1.6097	-3.2872	0.4085
C	-2.1954	1.5139	3.9638
C	-2.4787	-2.9838	2.8153
C	-1.6432	-0.8916	3.0630
C	-2.2491	-4.6279	0.2838
C	-1.4047	4.7845	1.2760
C	-2.7140	5.2039	1.0335
C	-1.9683	2.7285	3.3675
C	-1.1465	-2.6455	-0.7568
C	-1.0427	-3.2360	-2.0540
C	-1.5193	0.5290	3.1898
C	2.8538	2.5737	-0.1917
C	-2.4665	-1.8840	3.6690
C	-0.3747	1.4802	-1.9379
C	-0.5575	-1.0190	-2.1733
C	-0.6586	3.6660	-1.3963
C	2.6093	-2.6780	-1.0767
C	-1.1880	2.4951	2.1977
C	-3.5006	-4.7564	-0.3490
C	3.8893	-3.2360	-1.2036
C	4.2390	-0.8679	3.7520
C	-0.4477	2.8421	-2.4563
C	4.6701	-2.4795	-0.3877
C	3.2459	-1.0614	4.6857
C	2.0587	-0.9490	3.9545
C	4.1599	3.0418	-0.1088
C	4.8678	1.9995	0.4172
C	-3.0706	6.5234	1.3040
C	-0.4861	5.6821	1.7883
C	-4.2064	-3.5655	-0.9380
C	-3.7290	4.2477	0.4706
C	0.9477	5.2514	2.0382
C	-0.0474	0.4291	-4.1480
C	1.3709	1.2305	-5.9615
C	1.0704	1.1069	-4.6051
C	-0.8924	-0.1114	-5.1154
C	-0.6059	-0.0128	-6.4652
C	0.5324	0.6501	-6.8939
C	1.9631	1.2605	-8.7381
N	-1.1302	-1.4059	1.8878
N	-0.5055	1.5451	-0.5542
N	2.7689	1.3266	0.2753
N	2.3104	-0.7156	2.6625
N	4.0372	0.9709	0.6418
N	-0.8105	-1.2961	-0.8479
N	3.6876	-0.6732	2.5488
N	2.6219	-1.6394	-0.2594
N	-0.8764	1.1544	2.1485
N	3.9258	-1.5183	0.1766
O	0.7325	0.6888	-8.2574
H	-3.1960	9.1724	1.4665
H	-0.2363	7.6157	2.3788
H	3.3434	-1.2312	5.6151
*