! UKS B3LYP ma-def2-SVP OPT NumFreq
%basis

end 

%scf
  maxiter 200
end

%CPCM SMD TRUE
    SMDSOLVENT "ACETONITRILE"
END

%pal 
	nprocs 16
end
* xyz 0 1
Co	0.2457	0.6156	-0.0090
P	0.2393	-0.9629	-1.5492
H	2.8769	-1.9597	3.3190
H	-4.1494	-0.4821	2.0116
H	0.5505	-2.4657	3.8713
H	-1.4520	4.2389	-2.9828
H	-2.3859	-0.0181	-2.3065
H	-4.6449	1.3273	0.4516
H	-0.9334	-3.5934	-1.1990
H	-4.2715	-4.4829	3.0356
H	1.0037	-2.6711	0.6381
H	-3.0559	-3.0478	1.6922
H	-1.4646	-1.3208	4.9059
H	2.7480	-0.3221	-2.6657
H	1.0034	4.1819	-3.2088
H	4.0055	2.9596	-1.9754
H	-1.0011	0.0720	-4.0153
H	3.5442	0.6372	-4.5877
H	2.0852	1.3254	-6.2186
H	-4.5019	-0.9272	-2.4201
H	1.7874	-2.6475	-3.2815
H	-0.1823	1.1009	-5.9179
H	-3.0568	-4.4740	-1.3241
H	-4.8378	-3.1492	-1.8871
H	2.2811	-4.5913	0.8631
H	3.2774	-5.5305	-0.9640
H	3.0259	-4.6070	-3.0313
C	2.1432	-0.6442	1.8229
C	3.2833	-0.1217	1.1901
H	5.1395	1.4980	-0.4018
C	-2.1258	-0.2543	1.4475
C	0.0073	-1.1232	2.3256
C	-1.2383	2.6684	-1.5674
C	2.1918	2.1446	-1.2973
C	3.2134	0.7630	0.1475
C	2.1276	-1.5989	2.9020
C	0.9704	2.6249	-1.7804
C	-2.4426	2.3626	-0.9813
C	-2.5938	1.3605	-0.0035
C	-2.1415	-2.0264	3.1612
C	-1.3696	-1.1041	2.2824
C	-3.5327	-0.0277	1.4851
C	-1.4238	-1.7002	-1.7561
C	0.8406	-1.8826	3.2085
C	0.7849	-0.2550	-3.1369
C	4.6174	-0.5588	1.6645
C	-0.8702	3.6723	-2.5300
C	-2.5111	-0.9180	-2.1089
C	1.3086	-2.4299	-1.3338
C	-3.8052	0.9639	0.6163
C	-3.5512	-3.7834	4.7972
C	-1.6464	-3.0507	-1.4489
C	-3.6982	-3.8576	3.4163
C	1.4270	-3.0372	-0.1045
C	-3.6297	3.2207	-1.3206
C	-2.7165	-2.8587	5.3356
C	-2.9762	-2.9864	2.6163
C	-2.0174	-1.9624	4.5211
C	2.1504	-0.0557	-3.3275
C	0.4881	3.6409	-2.6551
C	3.5915	2.3567	-1.4013
C	-0.0840	0.1854	-4.1225
C	4.2207	1.5475	-0.5367
C	-3.7667	4.4812	-0.7322
C	-4.5885	2.8515	-2.2291
C	2.6284	0.5259	-4.4696
C	1.7580	0.9415	-5.4384
C	-3.7809	-1.4600	-2.1705
C	1.8893	-3.0286	-2.4395
C	0.4054	0.7931	-5.2662
C	-2.9191	-3.5746	-1.5165
C	7.0844	-1.4897	2.6173
C	-3.9807	-2.7895	-1.8610
C	-4.8026	5.3059	-1.0530
F	8.2415	-1.9720	3.0836
C	-4.3017	-4.7094	5.6699
C	5.3650	-1.5128	0.9882
C	-5.7171	4.9298	-1.9201
C	2.1803	-4.1981	0.0272
F	6.9031	-0.0663	4.4357
C	2.7711	-4.7556	-1.0643
C	-5.6558	3.7158	-2.5481
C	2.6312	-4.2047	-2.2907
C	6.5764	-1.9582	1.4506
N	0.8291	-0.3602	1.4857
N	-1.5579	0.6007	0.5109
N	2.0034	1.1704	-0.3394
N	-0.0840	2.0436	-1.1665
C	5.1895	-0.0976	2.8129
O	-5.0637	-5.5407	5.2993
F	-2.8492	4.8938	0.1266
C	6.3952	-0.5397	3.2997
F	4.5389	0.8363	3.5391
F	-4.5186	1.6613	-2.8382
F	4.8942	-1.9981	-0.1696
F	-6.7359	5.7367	-2.2692
F	-4.8896	6.5221	-0.5048
F	-6.5433	3.3041	-3.4623
F	7.2613	-2.8795	0.7472
H	-2.6092	-2.8214	6.2588
H	-4.1652	-4.6358	6.5867
*