! UKS B3LYP ma-def2-SVP OPT NumFreq
%basis

end 

%scf
  maxiter 200
end

%CPCM SMD TRUE
    SMDSOLVENT "ACETONITRILE"
END

%pal 
	nprocs 16
end
* xyz 0 3
H	-1.7347	-8.3376	4.0099
H	1.7608	-5.0962	2.3626
H	1.5999	-3.5875	2.8707
H	1.0385	-4.0116	1.4335
H	1.0103	-3.2539	-3.1525
H	1.0318	-4.1845	-5.2972
H	-1.0747	-1.0079	-6.6608
H	-1.1271	-0.1124	-4.5210
H	1.4915	-4.2655	-7.5414
H	-3.3468	-5.6107	4.6298
H	0.4560	-4.5492	-8.7277
H	0.1595	-5.1043	-7.2571
H	-3.9237	-3.0378	2.7711
H	-3.2522	-2.2775	4.0080
H	-4.2579	-3.4943	4.2676
H	-2.4931	-7.7231	5.2776
H	4.1370	1.6163	0.3087
H	5.4673	1.7082	-0.5755
H	4.0719	1.3354	-1.2654
H	-3.8082	-1.0997	1.5986
H	-3.4961	-1.4941	0.0792
H	-3.0085	-0.5730	-2.0252
H	-2.3525	0.6979	-2.7443
H	-3.9123	0.6966	-2.3880
H	-1.1077	2.6806	-2.2627
H	-1.1852	3.9326	-1.2677
H	-2.4639	3.5234	-2.1388
H	-1.1104	4.2676	0.9873
H	-1.5601	3.6814	2.4080
H	-4.1658	1.6488	3.0191
H	-2.6487	1.8959	3.4633
H	-3.1770	0.4062	3.2147
C	-0.0968	-0.9888	-2.2432
C	0.4966	0.2819	-2.1139
H	-4.8232	-0.6756	0.4370
C	1.2640	0.9636	-3.1130
C	1.7990	2.0684	-2.5329
C	1.3877	2.1020	-1.1684
C	1.8494	3.0033	-0.1968
C	1.4690	2.9062	1.1439
C	1.9958	3.5558	2.3029
C	1.4450	2.9505	3.4055
C	0.5829	1.9285	2.9320
C	-0.0371	0.7838	3.4731
C	-0.5148	-1.1513	4.5065
C	-0.7665	-1.2830	3.1034
C	-1.0510	-2.4124	2.3377
C	-1.0362	-2.3760	0.9316
C	-1.3292	-3.4700	0.0665
C	-1.0836	-3.0830	-1.2123
C	-0.6106	-1.7338	-1.1703
C	-1.2114	-3.7529	3.0037
C	-2.4126	-4.1001	3.6372
C	-2.5320	-5.3732	4.2023
C	-1.5113	-6.2950	4.1616
C	-0.3171	-5.9227	3.5598
C	-0.1504	-4.6596	2.9789
C	-1.6744	-7.6868	4.7392
C	1.1787	-4.3074	2.3567
C	-0.0836	-1.6046	-3.6010
C	0.5663	-2.8035	-3.8619
C	0.5831	-3.3620	-5.1389
C	-0.0622	-2.7040	-6.1748
C	-0.6706	-1.4798	-5.9416
C	-0.6921	-0.9436	-4.6706
C	0.5437	-4.3631	-7.7703
C	2.9745	3.9102	-0.5931
C	5.2762	4.1322	-1.2767
C	4.2341	3.3366	-0.8144
C	-3.5601	-3.1445	3.6741
C	4.5015	1.8701	-0.5642
H	7.0741	5.7546	-2.0514
C	-3.1305	0.4855	0.4829
H	6.3893	7.0930	-1.5019
C	-2.7175	1.0067	-0.7494
H	6.0515	6.5677	-2.9753
C	-2.1484	2.2749	-0.5449
C	-2.2162	2.5561	0.8336
C	-2.8335	1.4354	1.4705
C	-3.8799	-0.8093	0.6647
C	-3.0240	0.4048	-2.0943
C	-1.6859	3.1817	-1.6499
C	-1.8446	3.8502	1.4855
C	-3.2422	1.3381	2.9183
N	-0.6432	-1.2906	0.1509
H	3.7709	6.9877	-1.3293
N	0.5553	1.0090	-0.9320
N	0.5799	1.9426	1.5643
H	1.5864	6.9202	-0.4563
N	-0.5073	-0.0657	2.5071
H	1.1036	5.6209	0.3429
O	-0.1441	-3.1636	-7.4576
H	0.8472	5.7316	-1.2332
H	1.6107	3.1736	4.3145
H	0.1588	0.4967	5.5739
H	-0.6318	-1.8277	5.1624
H	-2.6197	4.4499	1.4867
C	6.2568	6.2962	-2.0570
C	2.8001	5.2905	-0.7691
C	3.8817	6.0512	-1.2178
C	5.1115	5.4839	-1.5052
C	1.4672	5.9484	-0.5059
C	-0.0763	0.1220	4.7323
Ti	-0.7457	0.6932	0.6110
H	1.3775	0.6925	-4.0168
H	2.3527	2.7090	-2.9632
H	2.6147	4.2770	2.3094
H	-1.6424	-4.3250	0.3379
H	-1.2043	-3.6119	-1.9927
H	0.4052	-6.5400	3.5417
H	6.1235	3.7354	-1.4403
H	-0.9022	-7.8987	5.3044
*