! UKS B3LYP ma-def2-SVP OPT NumFreq
%basis
NewGTO Tb "ma-def2-TZVP" end
end 

%scf
  maxiter 200
end

%CPCM SMD TRUE
    SMDSOLVENT "ACETONITRILE"
END

%pal 
	nprocs 16
end
* xyz 0 3
C	0.4892	-3.9331	1.2664
C	1.7307	-4.5140	1.2850
C	1.9283	-5.8154	1.7485
C	0.8380	-6.5373	2.1937
C	-0.4249	-5.9840	2.1643
C	-0.5884	-4.6872	1.7133
C	2.2047	-8.3906	2.8297
C	4.1099	-0.7953	-3.4518
H	4.7610	-1.2291	-5.9693
H	4.6644	-0.6328	-8.4860
O	0.9184	-7.8341	2.6510
C	1.1685	-0.2711	-5.8454
C	1.8082	-0.5179	-7.0531
C	3.1353	-0.8812	-7.1249
C	-0.2824	0.0907	-5.8221
Tb	-0.9484	0.6095	-0.3291
H	1.8969	4.3780	-2.7427
H	2.1411	2.5263	-4.3978
H	1.6113	-2.8831	-3.4958
H	0.1901	-2.6102	3.6743
H	0.1871	-0.4090	4.7921
H	1.2001	4.5941	2.7116
H	1.5417	5.2548	0.3054
H	3.8576	-1.5878	-2.9340
H	-0.9428	4.0745	6.7931
H	2.5695	2.1416	6.9289
C	3.8457	-0.9777	-5.9379
H	-2.0243	2.9586	3.7098
H	-2.3527	3.9733	4.9042
H	-1.3982	4.4317	3.7040
H	0.7494	2.7164	9.1193
C	3.8267	-1.1402	-8.4494
H	1.8877	3.7756	8.7400
H	0.3547	4.2309	8.7851
H	2.5929	0.3252	4.4100
H	2.9302	1.6342	3.5517
H	-3.2367	-2.4860	-2.4024
H	-1.6866	-2.0630	-2.4540
H	-3.9144	-0.1224	-2.8684
H	-3.0059	2.3332	-2.4447
H	-1.6301	2.3301	-3.2607
H	-2.9697	1.7890	-3.9485
H	-2.6403	3.9550	0.3970
H	-1.7061	4.1420	-0.8887
H	-3.2985	4.2186	-1.0377
H	-4.0901	1.1054	-1.3323
H	-4.7011	2.5202	-0.8803
H	-4.4084	2.1048	1.2712
H	-4.9591	0.7299	0.6915
H	-3.6910	-0.6267	2.7018
H	-2.2842	0.0600	3.0323
H	-3.6384	0.9000	3.1792
H	-3.1692	-2.6639	0.8319
H	-3.2528	-1.1341	1.2961
H	-4.3798	-1.7411	0.3368
H	1.1325	-4.1339	-1.4240
C	0.8738	2.9647	-1.5257
H	2.4774	-4.0174	0.9725
C	1.5806	3.4874	-2.6435
H	2.7981	-6.1971	1.7572
C	1.7206	2.4696	-3.5478
C	1.1110	1.2955	-2.9713
H	-1.1764	-6.4898	2.4538
C	1.2546	-0.0611	-3.3355
H	-1.4573	-4.3040	1.7090
C	0.9780	-1.1325	-2.4605
H	2.7240	-7.8234	3.4378
C	1.2839	-2.5121	-2.6858
H	2.1213	-9.2888	3.2142
H	2.6599	-8.4457	1.9640
C	0.5658	-2.2454	-0.5499
C	0.3248	-2.5075	0.8043
C	0.1338	-1.5479	1.8097
C	0.1689	-1.7656	3.2397
C	0.1662	-0.5577	3.8531
C	0.1253	0.4601	2.8362
C	0.2871	1.8473	3.0167
C	0.3987	2.7624	1.9345
C	0.9822	4.0760	1.9452
C	1.1662	4.4424	0.6250
C	0.6807	3.3571	-0.1633
C	1.9047	-0.3707	-4.6492
H	5.0556	-0.8582	-3.7055
H	3.9703	0.0079	-2.9097
C	3.2589	-0.7171	-4.7020
C	0.4986	2.3531	4.4123
H	1.3132	-0.4320	-7.8587
C	-0.4658	3.1717	5.0308
C	-0.2842	3.5334	6.3732
H	-0.5708	0.3405	-6.7250
C	0.8134	3.1364	7.1068
H	-0.8056	-0.6773	-5.5143
C	1.7883	2.3945	6.4502
H	-0.4208	0.8464	-5.2151
C	1.6656	2.0082	5.1211
H	3.2419	-0.8582	-9.1839
C	-1.6646	3.6775	4.2702
H	3.6203	1.4120	4.9788
C	0.9645	3.4966	8.5650
C	2.8013	1.2817	4.4574
H	4.0216	-2.0967	-8.5350
C	-2.5920	-1.7579	-2.2070
C	-2.9872	-0.4228	-3.0492
C	-2.4717	1.8504	-3.1082
C	-2.5582	3.7833	-0.5651
C	-4.0083	1.8442	-0.6786
C	-4.1708	1.3384	0.6926
C	-3.1789	0.2072	2.6599
C	-3.4259	-1.7579	0.5601
N	0.5392	1.6588	-1.7780
N	0.4964	-1.0038	-1.1524
N	0.0451	-0.1822	1.5983
N	0.1735	2.3915	0.6517
O	-3.0695	0.6072	1.3697
C	1.0285	-3.1973	-1.5480
O	-2.6005	2.4850	-0.7843
O	-2.6499	-1.3640	-0.5988
O	-2.1447	0.3328	-2.5518
H	-2.8585	-0.5424	-4.0234
*