! UKS B3LYP ma-def2-SVP OPT NumFreq
%basis
NewGTO La "ma-def2-TZVP" end
end 

%scf
  maxiter 200
end

%CPCM SMD TRUE
    SMDSOLVENT "ACETONITRILE"
END

%pal 
	nprocs 16
end
* xyz 0 1
C	-2.8937	-1.4255	3.2086
C	-3.7329	-2.2565	1.1322
C	-3.2917	-2.4912	-0.2857
C	0.5838	-3.1215	1.6415
C	-2.9047	-1.2855	-2.2822
C	0.5100	-2.8445	0.2554
C	-2.6545	2.6183	2.9362
C	0.7319	-3.7717	-0.8092
C	-4.0366	1.7914	1.1547
C	0.7398	-3.0678	-1.9675
C	-3.7221	2.5942	-0.0618
C	-2.4000	2.5306	-2.0284
O	-2.6685	-1.5710	1.8025
C	0.9074	-4.5321	2.0366
O	-2.9896	-1.2205	-0.8517
C	2.2466	-4.9505	2.0850
C	2.5459	-6.2621	2.4274
O	-2.8729	1.6020	1.9772
O	-2.6521	1.9483	-0.7412
C	1.5517	-7.1780	2.7432
C	0.2300	-6.7497	2.6891
C	-0.1050	-5.4438	2.3418
C	3.3623	-3.9752	1.7949
C	-1.5547	-5.0438	2.2563
H	-3.9193	-3.1201	1.5791
H	-2.4909	-3.0735	-0.3043
H	-4.0127	-2.9321	-0.8009
H	1.2776	-2.9590	4.4808
H	-0.4640	-7.3660	2.8929
La	-1.0956	0.1794	0.5592
H	2.7360	-8.8741	2.6964
H	1.2630	-0.6170	5.3466
H	1.1854	-9.2062	2.9129
H	2.0558	-8.6310	4.1250
H	1.3675	1.8338	-3.9294
H	1.5756	3.8479	-2.4985
H	1.6588	4.3384	2.9512
H	1.4573	2.5448	4.6831
H	2.7741	-1.2771	-4.0033
H	3.0222	-1.6940	-6.2628
H	-0.8913	-1.0891	-6.7760
H	-1.1206	-0.6311	-4.5337
H	2.9848	-1.0537	-8.4411
H	2.3171	-1.8495	-9.6591
H	2.8143	-2.6438	-8.3624
H	3.9312	6.8740	-0.2006
H	0.0964	7.8676	0.3481
H	3.7033	3.5356	0.5096
H	4.6812	4.6535	-0.0838
H	3.7450	3.8069	-1.0670
H	1.6391	9.6117	0.1576
H	2.9594	9.2909	-0.6884
H	3.0040	9.2485	0.9109
H	-1.2944	4.7765	-0.1477
H	-1.1966	5.1906	1.3968
C	0.5441	-0.0559	3.4218
C	1.0056	-0.8969	4.4772
C	1.0085	-2.1830	4.0046
C	0.5262	-2.1350	2.6553
C	0.5460	-1.6827	-1.6618
C	0.6429	-0.5760	-2.5481
C	0.7333	0.7823	-2.1763
C	1.1806	1.8776	-2.9989
C	1.2898	2.9872	-2.2151
C	1.9146	-8.5999	3.1564
C	0.8949	2.6225	-0.8844
C	0.9893	3.4154	0.2681
C	0.8255	2.9193	1.5928
C	1.3165	3.4621	2.8186
C	1.2035	2.4783	3.7691
C	0.6318	1.3377	3.1309
C	0.8053	-0.8841	-4.0022
C	2.0114	-1.2177	-4.5657
C	2.1667	-1.4707	-5.9168
C	1.0943	-1.3986	-6.7439
C	-0.1254	-1.1089	-6.2138
C	-0.2600	-0.8474	-4.8729
H	-1.6076	6.2818	0.3004
C	2.4112	-1.8099	-8.6833
H	-3.6403	-0.8078	3.3573
C	1.3767	4.8656	0.1342
C	2.7247	5.2486	-0.0323
H	-2.0857	-1.0707	3.6319
H	-3.1097	-2.2989	3.5955
C	3.0274	6.6153	-0.0639
H	-4.5573	-1.7096	1.1483
C	2.0798	7.6090	0.0927
C	0.7724	7.2061	0.2541
C	0.4053	5.8521	0.2875
C	3.8068	4.2225	-0.1813
H	-2.2025	-1.9187	-2.5391
H	0.8519	-4.7088	-0.7190
H	-2.6894	-0.3979	-2.6377
H	0.8544	-3.4325	-2.8377
H	-3.7634	-1.5838	-2.6484
C	-1.0517	5.4931	0.4754
H	-2.5075	3.4719	2.4787
C	2.4529	9.0676	0.1206
H	-1.8670	2.3949	3.4759
H	-3.4399	2.6903	3.5194
H	-4.7379	2.2522	1.6808
H	3.4546	-6.5391	2.4482
H	-4.3907	0.9080	0.8803
H	-4.5169	2.6508	-0.6497
H	3.5317	-3.4283	2.5897
H	-3.4573	3.5129	0.1951
H	3.1035	-3.3957	1.0488
H	4.1751	-4.4685	1.5597
N	0.2028	-0.8333	2.3627
H	-1.6707	-4.1505	2.6389
N	0.3565	-1.5725	-0.2926
H	-2.1016	-5.6869	2.7538
N	0.5308	1.2755	-0.9003
H	-1.8364	-5.0353	1.3178
N	0.3609	1.6557	1.8298
O	1.1364	-1.6445	-8.0933
H	-2.2273	3.4889	-1.9262
H	-3.1813	2.3992	-2.6051
H	-1.6187	2.0995	-2.4341
*