! UKS B3LYP ma-def2-SVP OPT NumFreq
%basis

end 

%scf
  maxiter 200
end

%CPCM SMD TRUE
    SMDSOLVENT "ACETONITRILE"
END

%pal 
	nprocs 16
end
* xyz 0 3
H	0.6341	-2.2797	3.9370
Ti	-0.7474	-0.1394	-0.5507
C	-2.9237	6.4486	-2.0723
C	2.3692	0.7134	-0.0890
H	0.4910	4.7546	-0.7881
C	-3.5960	0.0884	-0.0009
Si	-0.1258	-2.1882	-3.2227
C	-0.1031	-4.1819	3.5972
C	-3.2968	6.5699	0.2700
H	-2.9668	6.8445	-2.9356
H	-0.5128	-8.5509	4.2487
C	-1.8442	4.4684	-3.1676
C	-0.0790	-6.5906	3.8267
H	-3.5859	7.0638	1.0292
H	6.3437	2.6276	1.0212
H	-0.5868	-7.6042	5.5377
C	-0.0210	-5.3278	4.3728
H	6.4226	-0.1969	-1.8754
C	-4.7153	0.9467	-0.0643
H	-0.8704	4.5652	-3.2030
H	0.8338	-8.0441	4.9506
H	-3.0926	-4.0650	1.7799
C	-0.1865	-5.5833	1.6154
C	-2.7192	4.7005	1.8443
H	-2.2417	4.8699	-3.9690
C	2.1050	-2.5998	1.3542
H	-5.6256	0.6915	0.0366
H	-2.0765	3.5188	-3.1280
O	7.9651	1.2551	-0.5630
H	2.4246	-3.3873	1.7761
C	-4.0298	8.5116	-1.1704
C	1.4630	1.7649	-0.3239
H	-2.7893	5.4166	2.5107
C	8.6882	1.8959	0.4807
C	-2.7826	5.2931	0.4573
H	-1.8668	4.2292	1.9588
H	-3.4601	4.0712	1.9642
H	0.0791	-5.2395	5.3144
H	8.4919	2.8568	0.4706
H	9.6486	1.7563	0.3468
H	8.4204	1.5172	1.3454
H	-4.9671	8.4831	-0.8815
C	2.0098	-0.5806	0.3515
C	-3.4036	7.1470	-0.9843
H	-3.9855	8.7650	-2.1164
C	3.8312	0.9550	-0.2433
H	-3.5440	9.1708	-0.6319
C	-3.9265	-2.3519	0.9510
C	-0.5185	-0.5115	-2.5345
C	-0.1441	-6.6979	2.4537
N	0.0727	1.6369	-0.2618
C	5.8919	2.0004	0.4682
C	2.8720	-1.5643	0.9233
H	2.6244	3.5089	-0.6902
C	4.5102	1.8576	0.5536
C	-0.2114	-5.7529	0.1288
H	4.0253	2.3913	1.1722
C	1.5718	-2.7296	-2.6667
C	-0.1687	-2.1203	-5.0860
H	-4.8659	-2.4776	1.0309
H	-1.3563	-0.2168	-2.9727
C	-1.4172	-3.3902	-2.6231
C	6.6007	1.2225	-0.4263
N	-1.9149	-1.4593	0.4137
H	0.1950	0.0964	-2.8542
H	3.8181	-1.5053	0.9904
H	-0.1601	-7.5644	2.0625
N	0.7036	-1.0589	0.4355
N	-2.4662	0.8405	-0.2452
H	-1.0061	-5.3107	-0.2364
H	-0.2390	-6.7073	-0.0898
C	-2.8332	2.1600	-0.3950
C	4.5672	0.1956	-1.1454
H	0.5946	-5.3520	-0.2599
H	2.2372	-2.0761	-2.9675
H	4.1166	-0.4261	-1.7043
H	1.7760	-3.6066	-3.0520
H	1.5910	-2.7880	-1.6873
H	-1.0825	-1.9267	-5.3843
C	-2.3355	4.5816	-0.6718
C	-1.8592	3.1703	-0.5091
H	0.1186	-2.9830	-5.4498
C	-0.4864	2.9020	-0.4617
H	0.4343	-1.4141	-5.4012
H	-1.4180	-3.4087	-1.6423
C	-4.2513	2.2180	-0.2965
H	-1.2133	-4.2857	-2.9651
H	-2.2985	-3.1097	-2.9449
C	0.7428	-2.3061	1.0657
C	-2.3742	5.1713	-1.9361
C	-0.2114	-4.3120	2.1969
C	-3.2771	-1.2356	0.3902
H	-4.7846	3.0006	-0.3770
C	-0.1271	-2.8079	4.2553
C	5.9375	0.3250	-1.2470
C	-0.0869	-7.8035	4.7190
C	-1.6861	-2.6591	1.0457
C	1.7577	3.1367	-0.5817
C	-0.3804	-3.0790	1.3692
C	-2.9488	-3.2256	1.3600
H	-0.0689	-2.9104	5.2288
C	0.5828	3.8197	-0.6454
H	-0.9617	-2.3495	4.0253
*