! UKS B3LYP ma-def2-SVP OPT NumFreq
%basis
NewGTO Pt "ma-def2-TZVP" end
end 

%scf
  maxiter 200
end

%CPCM SMD TRUE
    SMDSOLVENT "ACETONITRILE"
END

%pal 
	nprocs 16
end
* xyz 0 3
H	-4.5024	0.6598	-5.8194
H	-4.5781	-1.5483	-6.5459
H	-3.2633	-3.1583	-5.4867
H	-0.2566	0.8585	-4.5775
C	-2.4981	-0.6075	-3.5901
C	-3.2369	0.3462	-4.2505
C	-4.0005	-0.0058	-5.3635
C	-4.0331	-1.3079	-5.8062
C	-3.2677	-2.2639	-5.1669
C	-2.5064	-1.9212	-4.0602
H	2.5012	-5.9043	-2.1204
H	-1.9877	-2.5845	-3.6191
H	-2.9130	-5.1934	5.0456
H	-5.0860	-4.4755	5.4591
H	-4.2306	-2.4230	0.7503
H	-4.1067	-1.7354	-1.6290
H	-5.8642	-2.4974	4.4941
H	-4.5002	-1.2928	3.0278
H	-3.2266	1.2476	-3.9489
H	-2.8932	3.3152	2.8612
C	-3.2281	-4.3884	4.6537
C	-4.5168	-3.9668	4.8926
C	-2.3473	-1.4345	1.0104
C	-3.5283	-1.9259	0.3482
H	-1.4913	-3.9249	3.6996
C	-3.4594	-1.5483	-0.9592
H	1.6225	-0.6318	5.0356
H	-0.5703	-1.7969	5.0099
C	-2.8515	-2.4776	3.2266
C	-2.3870	-3.6427	3.8404
H	1.9415	1.8330	-3.9594
H	4.6733	2.1629	0.9538
C	-4.9833	-2.7994	4.3104
H	4.0235	1.2337	3.1723
C	-4.1639	-2.0711	3.4558
H	2.8900	-4.2537	1.0623
H	1.3112	-3.9505	-2.6213
H	2.4748	-6.3480	-0.5833
H	3.7605	-5.6046	-1.1801
H	5.2642	1.2325	-1.5229
H	6.8666	2.6148	-2.5206
H	6.2670	4.6789	-3.3655
H	4.0539	5.3863	-3.2790
H	2.4169	3.9982	-2.3494
H	0.6243	3.0271	-0.1757
H	-1.9389	5.2771	2.0287
H	-2.0954	1.2279	2.1789
H	1.9238	-2.2290	1.6344
H	0.3374	-1.9421	-2.0537
Pt	0.1625	0.0107	0.3751
C	1.2577	-0.1777	2.9834
C	1.0378	-0.7085	4.2906
C	-0.1706	-1.3485	4.2747
C	-0.7373	-1.2301	2.9562
C	-1.9440	-1.6703	2.3755
C	-2.2436	-0.8223	-1.1480
C	-1.7200	-0.2950	-2.3480
C	-0.4923	0.4054	-2.5072
C	0.1149	0.8945	-3.7029
C	1.3259	1.4242	-3.3636
C	1.5085	1.2592	-1.9494
C	2.6506	1.6402	-1.1674
C	2.8425	1.3463	0.1981
C	3.8796	1.6774	1.1439
C	3.5213	1.1686	2.3681
C	2.2583	0.5251	2.2145
C	2.3657	-3.7890	0.4202
C	2.1893	-4.3361	-0.8409
C	3.6861	2.4731	-1.8358
C	5.0067	2.0723	-1.8866
C	5.9622	2.8994	-2.4731
C	2.7833	-5.6638	-1.2134
C	5.6062	4.1179	-2.9790
C	4.2941	4.5360	-2.9294
C	3.3239	3.7171	-2.3698
C	-0.6453	1.8911	0.9239
C	-0.0924	3.0736	0.4449
C	-0.5585	4.3316	0.8508
C	-1.6128	4.4292	1.7536
C	-2.1745	3.2676	2.2408
C	-1.6936	2.0142	1.8295
C	0.0738	5.5164	0.3354
C	1.0215	-1.8503	-0.1402
C	1.7897	-2.5752	0.7607
C	1.4352	-3.6090	-1.7428
C	0.8578	-2.4044	-1.4087
N	0.1686	-0.5099	2.2455
N	-1.6204	-0.7585	0.0721
N	0.3840	0.6389	-1.4787
N	1.9177	0.6575	0.9066
N	0.6150	6.4445	-0.0944
*