! UKS B3LYP ma-def2-SVP OPT NumFreq
%basis
NewGTO Br "ma-def2-TZVP" end
end 

%scf
  maxiter 200
end

%CPCM SMD TRUE
    SMDSOLVENT "ACETONITRILE"
END

%pal 
	nprocs 16
end
* xyz 0 3
Co	0.0007	-0.6315	-1.3584
C	-1.8404	-4.9767	-0.2107
C	-3.8286	4.1222	5.2311
H	-2.2076	3.7730	-0.6130
C	-5.7347	2.7157	1.0654
C	2.9929	5.5903	-4.5584
C	-0.5922	3.4220	-1.8650
C	1.2036	2.0298	-2.9892
H	-0.2734	0.2275	2.2803
H	-4.0860	-0.8400	1.4980
C	-2.1953	2.9145	3.9329
H	-6.1047	3.7423	2.7922
C	-1.5888	3.7381	6.0692
C	1.6415	2.2271	0.7045
H	-3.4681	-3.2120	1.1701
C	-3.0778	-5.3449	-0.7309
C	3.5157	5.0041	-3.4330
C	0.6138	-4.6492	-2.0663
H	1.0058	2.3487	0.0082
H	-5.0058	1.6267	-0.4951
C	1.5397	-4.0404	-2.8739
C	-0.6463	-1.1834	3.6970
C	-3.0629	-7.4159	0.4379
H	-4.6988	4.4837	5.3462
P	1.4441	-0.6077	0.2891
C	0.9884	-2.7644	2.1310
H	-6.5995	2.8364	0.6927
H	-0.3753	4.2775	-2.2179
C	1.3383	3.8917	-4.6849
H	4.0849	1.7968	3.4738
H	3.1526	-0.0735	2.4385
C	-1.8256	-7.1104	0.9469
H	-0.9509	3.8482	6.7640
C	2.1958	3.3373	1.3381
H	0.4837	-5.5840	-1.9676
C	-3.4878	3.4343	4.0646
H	-1.2194	-0.6421	4.2274
C	-2.8708	4.2616	6.2104
C	1.7722	0.7942	-3.2751
C	0.4079	-3.2561	3.2984
H	2.1706	-4.4747	-3.4344
C	-0.3753	-2.4787	4.0767
H	-3.0915	4.7290	7.0085
H	0.5670	-4.1569	3.5515
C	3.1150	3.1829	2.3496
C	2.8809	-0.9741	-4.1580
H	1.9356	4.2106	1.0695
H	-0.7395	-2.8246	4.8831
Br	0.4863	2.3389	4.6329
N	-1.5262	-1.1974	-0.4077
C	2.9361	3.8413	-2.9524
H	1.5366	-3.3263	1.5958
N	-0.5441	1.1674	-1.4600
C	-1.5649	1.7463	-0.7246
C	4.0150	-0.4484	-0.7240
N	0.3796	-2.4043	-1.8060
C	2.8135	0.3900	-4.1805
C	-4.1694	3.0745	2.8299
H	3.5057	3.9458	2.7606
C	-2.4374	-0.3659	0.2268
H	3.4721	-1.5201	-4.6625
O	-2.0141	2.2533	2.7373
H	3.8488	0.4867	-0.7137
C	-1.2312	-3.6535	-0.5440
H	3.3577	0.9689	-4.7028
C	5.2162	-0.9239	-1.2245
F	0.2687	3.3791	-5.3122
C	0.0762	2.1937	-2.1635
F	-0.0306	-5.6378	1.1552
C	3.2906	-2.6981	-0.3038
F	-3.7169	-4.5162	-1.5725
C	4.5312	-3.1602	-0.7634
H	5.8564	-0.3132	-1.5707
C	-1.5983	3.1472	-0.9846
C	5.4884	-2.2696	-1.2219
H	2.6181	-3.3152	-0.0407
C	-1.2308	-5.9035	0.6148
F	-1.2108	-7.9658	1.7804
N	1.2431	-0.3439	-2.7189
H	4.7177	-4.0928	-0.7597
C	-3.2297	2.3565	2.0784
H	6.3275	-2.5877	-1.5334
F	-3.6668	-8.5584	0.8006
F	-4.8590	-6.8748	-0.9837
C	-2.4439	1.0197	0.0956
C	-0.0828	-0.6675	2.5403
C	-0.1225	-3.6165	-1.3988
C	2.0142	0.9497	1.0841
C	-3.3638	-1.1645	0.9723
C	1.8353	3.2615	-3.5555
F	3.4659	3.2885	-1.8494
C	1.9098	5.0420	-5.1926
F	1.4303	5.6162	-6.3085
C	-1.2427	3.0566	4.9099
C	0.7618	-1.4510	1.7531
C	3.4655	1.9099	2.7626
C	-5.4464	3.2581	2.3076
C	-1.8760	-2.4974	-0.0749
C	2.9159	0.7967	2.1428
F	3.5768	6.6985	-5.0476
C	-3.0262	-2.4595	0.7925
F	4.5855	5.5451	-2.8356
C	-3.6762	-6.5496	-0.4298
C	3.0481	-1.3239	-0.2337
C	1.3787	-2.6320	-2.7160
C	-4.7739	1.9924	0.3502
C	-3.4844	1.7912	0.8434
C	1.8911	-1.4256	-3.2285
*