! UKS B3LYP ma-def2-SVP OPT NumFreq
%basis
NewGTO Ru "ma-def2-TZVP" end
end 

%scf
  maxiter 200
end

%pal 
	nprocs 16
end
* xyz 0 1
H	-4.4681	-3.3456	5.2917
H	-2.8104	-2.6640	3.8381
H	-2.1286	-0.2984	4.7330
H	0.0901	0.7075	5.1350
H	2.9239	-0.2152	4.6265
H	4.0494	0.4178	6.5603
H	3.1010	4.2455	5.8501
H	2.0042	3.6333	3.9058
H	5.1841	2.2475	7.8175
H	3.7793	2.6690	8.4572
H	4.6415	3.7425	7.6419
H	4.0437	2.4626	2.0734
H	4.4564	2.5684	-0.3534
H	4.9335	0.6260	-2.2686
H	4.2770	4.4657	-4.8153
H	2.5043	3.5466	-3.6305
H	-6.1972	-1.4275	-7.2457
H	-1.1423	2.9950	-1.9238
H	-2.1930	3.7078	-0.9519
H	-2.4149	2.1851	-1.3926
H	-5.3257	0.0866	2.2697
H	-0.4215	2.9395	0.1960
H	-7.0019	-0.6522	3.6976
H	-7.8641	-2.4663	5.1660
H	-6.9755	-2.0015	6.4154
H	-6.8295	-3.4861	5.8376
Ru	-0.1191	0.2276	0.0103
C	0.6523	-1.4603	-0.0409
C	0.2108	-2.5791	-0.9553
C	1.3582	-2.9173	-1.9256
C	2.5768	-3.3560	-1.1345
C	3.0079	-2.2097	-0.2108
C	1.8628	-1.8697	0.7578
C	1.5180	-3.1063	1.5970
C	1.1110	-4.2527	0.6749
C	-0.1272	-3.8087	-0.1038
C	2.2342	-4.5839	-0.3063
C	1.2742	0.9572	-2.6252
C	1.1075	0.8514	-4.0480
C	-0.1122	0.3311	-4.2714
C	-0.7261	0.1006	-2.9962
C	-2.0068	-0.4254	-2.7977
C	-2.8173	-0.7303	-4.0237
C	-3.3036	0.2947	-4.8222
C	-4.0773	0.0311	-5.9370
C	-4.3796	-1.2592	-6.2969
C	-3.8922	-2.2946	-5.5074
C	-3.1219	-2.0258	-4.3802
C	-2.5988	-0.6821	-1.5620
C	-3.9175	-1.2149	-1.3645
C	-4.1232	-1.3210	-0.0410
C	-2.9391	-0.8324	0.6215
C	-2.7667	-0.7520	2.0089
C	-3.8818	-1.2091	2.8970
C	6.8315	3.7235	-5.0095
C	-4.6521	-2.6484	4.6708
C	-3.6599	-2.2383	3.8091
C	-1.6182	-0.2553	2.6525
C	-1.4837	-0.0730	4.0730
C	-0.2766	0.4733	4.2910
C	0.3568	0.6410	3.0162
C	1.6111	1.2354	2.8222
C	2.3445	1.6440	4.0585
C	2.9584	0.7023	4.8683
C	3.6252	1.0803	6.0287
C	3.6781	2.3932	6.4168
C	3.0688	3.3280	5.6043
C	2.4124	2.9656	4.4433
C	4.3828	2.7991	7.6960
C	2.2008	1.4857	1.5892
C	3.4700	2.1331	1.3914
C	-5.2568	-1.5471	-7.4932
C	3.6953	2.1903	0.0705
C	2.5722	1.5677	-0.5899
C	2.4089	1.4636	-1.9773
C	3.5286	1.9926	-2.8087
C	4.7898	1.4116	-2.7839
C	5.8440	1.9596	-3.4966
C	5.6819	3.1112	-4.2544
C	-5.1453	-0.6210	2.8777
C	4.4184	3.6836	-4.2935
C	3.3585	3.1355	-3.5852
C	-6.1431	-1.0563	3.7374
C	-5.9121	-2.0761	4.6576
C	-1.7447	2.8632	-1.1633
N	0.1453	0.4822	-2.0021
C	-6.9904	-2.5496	5.6018
N	-2.0171	-0.4646	-0.3314
N	-0.4858	0.1912	2.0252
N	1.6743	1.1499	0.3626
O	-0.9917	2.4241	-0.0289
H	-0.5962	-2.2946	-1.4733
H	1.0776	-3.6439	-2.5381
H	1.5812	-2.1229	-2.4712
H	3.3229	-3.5763	-1.7633
H	3.2366	-1.4119	-0.7510
H	3.8114	-2.4767	0.3023
H	2.1399	-1.1188	1.3593
H	2.3043	-3.3734	2.1361
H	0.7753	-2.8947	2.2152
H	0.8926	-5.0626	1.2198
H	-0.8572	-3.5867	0.5277
H	-0.4364	-4.5458	-0.6885
H	3.0355	-4.8840	0.1928
H	1.9491	-5.3193	-0.9040
H	1.7410	1.1012	-4.7098
H	-0.4973	0.1473	-5.1198
H	-3.1012	1.1965	-4.5995
H	-4.4049	0.7508	-6.4628
H	6.6947	1.5399	-3.4648
H	-4.0876	-3.1948	-5.7390
H	-2.8012	-2.7456	-3.8489
H	-5.0291	-0.9297	-8.2194
H	6.8993	3.3089	-5.8956
H	7.6638	3.5760	-4.5135
H	-5.1119	-2.4698	-7.7906
H	6.6786	4.6860	-5.1125
H	-4.5348	-1.4500	-2.0473
H	-4.9050	-1.6564	0.3802
*