! UKS B3LYP ma-def2-SVP OPT NumFreq
%basis
NewGTO Ru "ma-def2-TZVP" end
end 

%scf
  maxiter 200
end

%pal 
	nprocs 16
end
* xyz 0 1
H	-7.3411	-0.3042	6.2678
Ru	-0.2008	0.4523	-0.1339
C	-0.3404	1.7435	3.9505
C	0.3143	1.5707	2.6791
C	1.5969	2.0063	2.3628
C	2.1566	1.9972	1.0771
C	3.4404	2.5029	0.7161
C	3.5986	2.3326	-0.6096
C	2.4499	1.6707	-1.1014
H	-1.4344	-3.3384	-3.8567
H	-5.4124	-1.8089	-5.5212
C	2.2491	1.2431	-2.4244
H	-4.3001	-0.5899	-3.9257
C	1.1369	0.5671	-2.9010
C	0.9373	0.1359	-4.2649
H	-5.6290	-3.6152	-6.9863
C	-0.2297	-0.4816	-4.3267
H	-0.6166	-3.9967	4.4866
H	-4.2563	-4.1670	-7.5073
H	-1.7727	-4.3072	2.5589
H	-1.2957	-3.0226	0.7129
C	2.4767	2.4461	3.4922
C	2.7955	1.5572	4.4913
H	-2.5855	-4.5627	-5.4364
H	-2.7170	3.7290	-0.6600
C	3.6741	1.9103	5.5132
H	-2.3178	3.1790	0.7530
C	4.2399	3.1470	5.5714
H	-3.0504	2.2474	-0.2731
C	3.8895	4.0520	4.5920
C	3.0182	3.7202	3.5688
H	-5.0485	-4.9513	-6.4065
C	5.2560	3.5126	6.6337
C	-3.8036	-1.6793	-0.9730
C	-4.0312	-1.3830	0.3290
C	3.3979	1.5181	-3.3687
C	-2.9640	-0.5490	0.7730
C	4.5490	0.8013	-3.3229
C	-2.5977	-1.0210	-1.3627
C	-2.8095	-0.0451	2.0765
C	5.6467	1.1331	-4.0991
C	-1.7045	0.6565	2.5422
C	5.6321	2.1640	-4.9485
C	-1.5585	1.2005	3.8704
C	4.4298	2.8170	-5.1063
C	3.2944	2.5065	-4.3265
C	6.8623	2.5757	-5.7397
C	0.5467	-1.1807	0.2877
C	0.2023	-1.9508	1.5130
C	0.8960	-1.7716	2.6904
C	0.5832	-2.5452	3.8280
C	1.5397	-1.8887	-0.5600
C	-3.9083	-0.3290	3.0509
C	1.1478	-2.7883	-1.5189
C	-3.6966	-1.1683	4.1311
C	2.0836	-3.4520	-2.2784
C	-0.8125	-0.4798	-2.9982
C	-4.7212	-1.4345	5.0274
C	3.3930	-3.2586	-2.0659
C	-2.0233	-1.0618	-2.6373
C	-5.9624	-0.8844	4.8739
C	3.8019	-2.3660	-1.1300
C	-6.1607	-0.0540	3.8014
C	2.8795	-1.6687	-0.3710
C	-5.1580	0.2246	2.8993
C	-7.0771	-1.1346	5.8652
N	1.5531	1.4954	-0.0612
N	0.0502	0.1889	-2.1528
H	0.0222	2.1605	4.6973
H	4.0611	2.8844	1.2946
H	4.3336	2.6023	-1.1142
C	-2.7547	-1.8426	-3.6899
C	-2.2485	-3.0226	-4.1770
C	-2.9336	-3.7518	-5.1431
C	-4.1042	-3.2994	-5.6672
C	-4.6031	-2.1265	-5.1887
H	1.5263	0.2672	-4.9723
C	-3.9399	-1.3954	-4.2212
C	-4.8246	-4.0801	-6.7408
C	-0.4122	-3.4786	3.7410
C	-1.1010	-3.6649	2.6008
C	-0.8052	-2.8983	1.4931
H	2.4183	0.7072	4.4852
H	3.8810	1.2857	6.1696
H	4.2472	4.9108	4.6188
H	2.7955	4.3554	2.9272
H	5.3753	2.7709	7.2320
H	4.9433	4.2738	7.1277
H	6.0933	3.7255	6.2164
C	-2.4127	2.9572	-0.1761
H	4.6026	0.0684	-2.7528
N	-2.0891	-0.3372	-0.2724
N	-0.5619	0.9329	1.8154
H	6.4194	0.6203	-4.0295
O	-1.1533	2.5393	-0.6952
H	4.3628	3.4859	-5.7470
H	2.4913	2.9572	-4.4582
H	6.6457	3.3209	-6.3023
H	7.1544	1.8393	-6.2814
H	7.5645	2.8241	-5.1345
H	-1.1168	2.7123	-1.4948
H	1.5750	-1.1381	2.7355
H	-4.7516	-1.6722	0.8404
H	1.0456	-2.4210	4.6238
H	-2.1961	1.1792	4.5474
H	-4.3379	-2.2134	-1.5164
H	0.2425	-2.9516	-1.6542
H	4.0209	-3.7341	-2.5605
H	-2.8606	-1.5569	4.2568
H	4.7109	-2.2241	-0.9955
H	3.1667	-1.0530	0.2639
H	-4.5593	-1.9987	5.7498
H	-6.9980	0.3346	3.6819
H	1.8050	-4.0375	-2.9438
H	-0.6105	-0.8525	-5.0903
H	-5.3272	0.7924	2.1809
H	-6.7692	-1.7361	6.5479
H	-7.8291	-1.5250	5.4135
*