! UKS B3LYP ma-def2-SVP OPT NumFreq
%basis

end 

%scf
  maxiter 200
end

%pal 
	nprocs 16
end
* xyz 0 1
C	-0.3414	-1.7361	2.9109
H	5.0815	1.6579	0.7054
H	4.8277	1.1068	2.1874
H	5.2310	3.5419	1.9884
H	3.7628	3.6424	1.3649
H	4.3795	2.8400	4.0421
H	2.9059	2.7079	3.4347
C	-3.3355	-2.3662	1.1049
C	-2.5684	-2.5366	2.1935
H	3.7263	4.4904	5.8368
C	-1.3697	-1.7902	1.9849
C	-0.5073	-2.4807	4.2033
H	2.2276	4.1637	5.3877
C	-0.1913	-3.8584	4.2843
H	-4.2508	-5.2333	-3.6977
C	0.8247	-1.0230	2.7055
H	-2.7311	-5.0499	-3.2308
C	1.8777	-0.9597	3.6597
C	2.8445	-0.1703	3.1535
C	-1.1189	-2.4938	6.6048
C	2.3851	0.2644	1.8590
C	-0.3780	-4.5575	5.5293
H	-2.3962	-6.2051	-6.6212
C	3.1118	1.1114	1.0300
H	-1.7362	-6.4229	-5.1798
C	2.6146	1.5052	-0.2093
H	-3.2665	-6.8194	-5.4267
C	-1.3893	-0.4198	5.3014
C	-1.5870	-1.7677	7.7350
C	-0.9985	-1.7965	5.3438
C	-1.8635	0.2141	6.3746
C	-1.9423	-0.4636	7.6446
C	0.2874	-4.6031	3.1550
N	-1.3887	-1.1532	0.7560
C	4.4527	1.6783	1.4707
C	4.3319	3.1267	1.9897
C	3.7427	3.2366	3.3957
N	1.1313	-0.2651	1.5826
C	-3.4373	-4.6822	-3.8194
C	-2.9871	-4.7827	-5.2476
C	-2.5590	-6.1818	-5.6552
H	-0.2267	-6.4350	6.3832
H	0.8615	-6.4080	2.4879
H	0.5049	-7.5604	4.5289
C	-0.1010	-5.9603	5.5695
H	-0.8615	6.4080	-2.4879
H	-0.5049	7.5604	-4.5289
C	0.5430	-5.9351	3.2479
C	0.3351	-6.6268	4.4774
C	-0.8222	-3.8500	6.6505
H	0.2267	6.4350	-6.3832
C	-0.5430	5.9351	-3.2479
C	-0.3351	6.6268	-4.4774
C	0.1010	5.9603	-5.5695
H	-1.8959	1.3963	-4.5034
H	-3.6677	-0.0549	-3.5694
H	-0.4296	4.1572	-2.3272
H	4.2508	5.2333	3.6977
H	2.7311	5.0499	3.2308
H	-5.0815	-1.6579	-0.7054
H	-4.8277	-1.1068	-2.1874
H	2.3962	6.2051	6.6212
H	-5.2310	-3.5419	-1.9884
H	-3.7628	-3.6424	-1.3649
H	4.1935	2.7451	-0.9553
H	-4.3795	-2.8400	-4.0421
H	2.7826	3.0560	-2.9596
H	-2.9059	-2.7079	-3.4347
H	1.7362	6.4229	5.1798
H	3.2665	6.8194	5.4267
H	-3.7263	-4.4904	-5.8368
H	-2.2276	-4.1637	-5.3877
H	0.9249	4.3126	-7.4735
H	1.6514	2.2080	-8.5743
H	2.2428	-0.0028	-8.4160
H	2.1501	-1.1170	-6.3014
H	1.3088	-0.0568	-4.4839
C	-0.8247	1.0230	-2.7055
C	-1.8777	0.9597	-3.6597
C	-2.8445	0.1703	-3.1535
C	-2.3851	-0.2644	-1.8590
C	-3.1118	-1.1114	-1.0300
C	-2.6146	-1.5052	0.2093
C	-0.2874	4.6031	-3.1550
C	0.3414	1.7361	-2.9109
C	3.4373	4.6822	3.8194
C	2.9871	4.7827	5.2476
C	3.3355	2.3662	-1.1049
C	2.5590	6.1818	5.6552
C	2.5684	2.5366	-2.1935
C	1.3697	1.7902	-1.9849
C	-4.4527	-1.6783	-1.4707
C	0.5073	2.4807	-4.2033
C	-4.3319	-3.1267	-1.9897
C	0.1913	3.8584	-4.2843
C	-3.7427	-3.2366	-3.3957
N	-1.1313	0.2651	-1.5826
C	0.3780	4.5575	-5.5293
C	0.8222	3.8500	-6.6505
C	1.1189	2.4938	-6.6048
C	1.5870	1.7677	-7.7350
H	-4.1935	-2.7451	0.9553
C	1.9423	0.4636	-7.6446
H	-2.7826	-3.0560	2.9596
C	1.8635	-0.2141	-6.3746
C	1.3893	0.4198	-5.3014
C	0.9985	1.7965	-5.3438
H	-0.9249	-4.3126	7.4735
H	-1.6514	-2.2080	8.5743
H	-2.2428	0.0028	8.4160
H	-2.1501	1.1170	6.3014
H	-1.3088	0.0568	4.4839
N	1.3887	1.1532	-0.7560
Ni	0.0000	0.0000	0.0000
H	1.8959	-1.3963	4.5034
H	3.6677	0.0549	3.5694
H	0.4296	-4.1572	2.3272
*