! UKS B3LYP ma-def2-SVP OPT NumFreq
%basis

end 

%scf
  maxiter 200
end

%pal 
	nprocs 16
end
* xyz 0 1
C	2.4800	-4.7735	8.3010
H	3.3548	-1.7535	3.4059
C	12.3462	2.6990	-3.5216
C	0.6980	1.4975	-2.5176
H	4.7553	-0.6495	1.6886
C	3.0751	-5.9956	9.0626
C	12.3004	3.4202	-4.8535
C	-0.6175	1.6916	-2.9116
C	2.1702	-7.0236	9.3762
C	13.6634	3.5134	-5.5195
C	-1.6806	1.1581	-2.2052
C	2.9136	-8.1904	9.9965
C	-3.0477	1.3154	-2.6225
C	-9.6883	-1.9400	0.7846
C	1.9731	-9.3442	10.1343
C	-11.0467	-1.9953	1.4445
C	-3.8073	0.7200	-1.6840
C	1.5451	-9.8799	8.7875
C	-10.9992	-2.6362	2.8220
C	-2.9245	0.2136	-0.6792
N	-1.1120	-0.8231	1.3802
C	-12.3462	-2.6990	3.5216
C	4.8415	0.5465	-0.7050
H	-9.2347	-2.8172	0.8644
N	1.6001	-0.4620	1.0163
C	-12.3004	-3.4202	4.8535
O	-8.9176	-0.9239	1.4436
C	-13.6634	-3.5134	5.5195
H	-9.7847	-1.7242	-0.1780
O	2.0182	-5.2593	7.1064
C	7.5845	0.8437	-1.1346
C	6.9152	1.7220	-0.3056
C	5.5436	1.5680	-0.1091
H	11.4030	1.0757	-1.5278
H	11.6659	2.5104	-0.8701
C	-0.9105	2.5613	-4.0945
H	1.1902	-1.1169	5.4879
H	10.3705	2.1243	-3.3886
C	-1.2143	2.0549	-5.3383
H	1.7628	-2.6080	7.2683
H	10.6427	3.5557	-2.7339
C	-5.5342	0.3492	1.5022
C	-1.5657	2.9430	-6.4025
H	1.3029	-5.7353	4.7958
H	12.9931	3.1588	-2.9292
C	-6.8976	0.2082	1.7164
C	-1.6126	4.2953	-6.1435
H	0.7228	-4.3115	3.0785
H	12.6740	1.7762	-3.6672
H	3.8223	1.7329	-2.8832
C	-1.2897	4.7963	-4.9405
C	0.9458	-3.9461	3.9280
H	3.1765	-4.0871	8.1500
H	11.9456	4.3332	-4.7125
H	1.7872	2.4637	-4.0836
H	-11.4030	-1.0757	1.5278
C	-0.9458	3.9461	-3.9280
H	1.7422	-4.3679	8.8191
H	11.6771	2.9430	-5.4563
H	-11.6659	-2.5104	0.8701
H	-3.3548	1.7535	-3.4059
C	-2.4800	4.7735	-8.3010
H	3.4806	-5.6703	9.9046
H	14.2998	3.9342	-4.9049
H	-10.3705	-2.1243	3.3886
H	-4.7553	0.6495	-1.6886
C	-3.0751	5.9956	-9.0626
H	3.8035	-6.3806	8.5118
H	13.5920	4.0524	-6.3350
H	-10.6427	-3.5557	2.7339
C	-2.1702	7.0236	-9.3762
H	1.4887	-6.6853	10.0109
H	13.9769	2.6134	-5.7492
H	-12.9931	-3.1588	2.9292
H	9.7847	1.7242	0.1780
C	-2.9136	8.1904	-9.9965
H	1.7065	-7.3218	8.5549
H	-12.6740	-1.7762	3.6672
C	-1.9731	9.3442	-10.1343
H	3.2628	-7.9323	10.8867
H	-11.9456	-4.3332	4.7125
C	-1.5451	9.8799	-8.7875
H	3.6796	-8.4452	9.4250
N	1.1120	0.8231	-1.3802
H	-11.6771	-2.9430	5.4563
H	1.1733	-9.0547	10.6398
N	-1.6001	0.4620	-1.0163
H	-14.2998	-3.9342	4.9049
H	9.2347	2.8172	-0.8644
H	2.4143	-10.0664	10.6484
H	-13.5920	-4.0524	6.3350
O	8.9176	0.9239	-1.4436
H	2.3148	-10.2898	8.3395
H	-13.9769	-2.6134	5.7492
O	-2.0182	5.2593	-7.1064
C	5.5342	-0.3492	-1.5022
H	0.8429	-10.5522	8.9110
Ni	-0.0000	-0.0000	0.0000
C	6.8976	-0.2082	-1.7164
H	1.2015	-9.1457	8.2390
C	-3.3631	-0.3947	0.4825
C	-2.4939	-0.8892	1.4341
C	-2.9240	-1.5800	2.6147
C	-1.8188	-1.9693	3.2723
H	-5.0688	1.0703	1.9097
C	-0.6980	-1.4975	2.5176
H	-7.3592	0.8328	2.2629
C	0.6175	-1.6916	2.9116
H	7.3855	2.4258	0.1264
C	1.6806	-1.1581	2.2052
H	5.0839	2.1829	0.4509
C	3.0477	-1.3154	2.6225
H	-1.1902	1.1169	-5.4879
C	3.8073	-0.7200	1.6840
H	-1.7628	2.6080	-7.2683
C	2.9245	-0.2136	0.6792
H	-1.3029	5.7353	-4.7958
C	-4.8415	-0.5465	0.7050
H	-0.7228	4.3115	-3.0785
H	-3.1765	4.0871	-8.1500
H	-1.7422	4.3679	-8.8191
C	10.9992	2.6362	-2.8220
C	-7.5845	-0.8437	1.1346
H	-3.4806	5.6703	-9.9046
C	-6.9152	-1.7220	0.3056
H	-3.8035	6.3806	-8.5118
C	-5.5436	-1.5680	0.1091
H	-1.4887	6.6853	-10.0109
H	-1.7065	7.3218	-8.5549
H	5.0688	-1.0703	-1.9097
H	-3.2628	7.9323	-10.8867
H	7.3592	-0.8328	-2.2629
H	-3.6796	8.4452	-9.4250
H	-7.3855	-2.4258	-0.1264
H	-1.1733	9.0547	-10.6398
H	-5.0839	-2.1829	-0.4509
H	-2.4143	10.0664	-10.6484
H	-2.3148	10.2898	-8.3395
C	0.9105	-2.5613	4.0945
H	-0.8429	10.5522	-8.9110
C	1.2143	-2.0549	5.3383
H	-1.2015	9.1457	-8.2390
C	1.5657	-2.9430	6.4025
C	3.3631	0.3947	-0.4825
C	1.6126	-4.2953	6.1435
C	9.6883	1.9400	-0.7846
C	2.4939	0.8892	-1.4341
H	-3.8223	-1.7329	2.8832
C	1.2897	-4.7963	4.9405
C	11.0467	1.9953	-1.4445
C	2.9240	1.5800	-2.6147
H	-1.7872	-2.4637	4.0836
C	1.8188	1.9693	-3.2723
*