! UKS B3LYP ma-def2-SVP OPT NumFreq
%basis

end 

%scf
  maxiter 200
end

%pal 
	nprocs 16
end
* xyz 0 1
H	-0.1057	2.2986	2.1958
H	2.2659	-0.8538	2.5822
H	-2.6342	-1.9722	-0.8039
H	-0.2459	0.3543	-4.3132
H	-0.2170	1.3662	-3.0732
H	-1.1221	1.6932	-4.3530
H	-2.1897	-3.2880	4.1255
C	-2.2988	-4.9802	1.3502
C	0.0747	-2.8883	1.2362
C	0.8377	-4.1135	1.3550
C	2.0292	-3.8967	0.7664
C	2.0193	-2.5379	0.2690
C	3.0749	-1.9514	-0.4254
C	3.0564	-0.6350	-0.8981
C	4.1709	-0.0205	-1.5749
C	3.7978	1.2584	-1.8521
C	2.4520	1.4252	-1.3431
C	1.7279	2.6133	-1.4335
C	0.4171	2.7645	-0.9799
C	-0.3586	3.9613	-1.1523
C	-1.5764	3.7314	-0.6021
C	-1.5612	2.3794	-0.1030
C	-2.6162	1.7956	0.6018
C	-2.5830	0.5019	1.1175
H	-3.3786	-5.1425	4.9000
H	-3.8681	-6.8983	3.4557
H	-3.2165	-6.7931	1.2192
C	-1.9555	-1.5446	1.6212
C	-1.2268	-2.7250	1.7151
C	4.2960	-2.7873	-0.6988
C	5.2140	-3.0441	0.3138
C	6.3338	-3.8368	0.0672
C	6.5440	-4.3801	-1.1922
C	5.6302	-4.1249	-2.2113
C	4.5163	-3.3287	-1.9661
C	2.3796	3.7838	-2.1199
C	2.8297	4.8867	-1.3882
C	3.4810	5.9432	-2.0354
C	3.6731	5.9097	-3.4136
C	3.2037	4.8351	-4.1376
C	2.5518	3.7822	-3.4925
C	0.5224	1.6756	2.5432
C	1.8126	-0.0380	2.7590
C	-1.7490	-0.6116	-2.0513
C	-1.9404	0.2380	-3.1450
H	-4.5291	0.2837	2.0053
H	-3.8278	-2.0299	2.5717
C	-2.7980	-1.3726	-1.5222
C	-0.7784	0.9789	-3.7774
C	-1.9952	-3.9357	2.2104
C	-2.3970	-3.9998	3.5331
N	0.8184	-1.9364	0.5767
N	2.0149	0.2533	-0.7561
H	-3.4193	3.0950	2.7967
N	-0.3426	1.7915	-0.3560
N	-1.5310	-0.3824	1.0093
H	-6.7318	4.9572	1.4003
N	0.9278	0.5846	1.8998
H	-6.4614	3.8978	-0.6591
H	-4.6464	2.4550	-1.0155
N	-0.4014	-0.7843	-1.5067
O	0.3086	-1.5018	-2.2566
H	-3.3931	0.9006	-4.4034
H	-5.1695	-0.2921	-3.4728
H	-4.8010	-1.7542	-1.6813
C	-3.1001	-5.1028	3.9929
C	-3.3948	-6.1403	3.1355
C	-3.0031	-6.0813	1.8111
H	2.4822	0.4992	4.6530
H	0.4109	3.5849	4.3259
H	1.7032	3.1168	5.1442
H	0.2778	2.4589	5.4553
C	-3.6907	-0.1170	1.8070
C	-3.3079	-1.3774	2.1164
C	-3.8291	2.6468	0.8492
C	-4.0285	3.2598	2.0868
C	-5.1174	4.1157	2.2949
C	-6.0051	4.3612	1.2668
C	-5.8377	3.7397	0.0399
C	-4.7541	2.8809	-0.1728
C	-3.2318	0.3312	-3.6595
C	-4.2963	-0.3921	-3.1126
C	-4.0821	-1.2527	-2.0474
C	1.9356	0.6999	3.9017
C	0.8549	2.8227	4.7513
H	0.5520	-4.9181	1.7696
H	2.7423	-4.5192	0.6914
H	-5.2446	4.5263	3.1426
N	1.1133	1.7877	3.7495
H	7.3061	-4.9220	-1.3584
H	5.7682	-4.4949	-3.0757
H	-2.0227	-4.9412	0.4421
Fe	0.2208	-0.0938	0.0820
H	5.0022	-0.4280	-1.7864
H	4.3202	1.9164	-2.2950
H	-0.0723	4.7635	-1.5735
H	-2.3005	4.3442	-0.5548
H	5.0769	-2.6776	1.1802
H	6.9560	-4.0062	0.7654
H	3.9006	-3.1521	-2.6679
H	2.6929	4.9187	-0.4485
H	3.7934	6.6860	-1.5324
H	4.1239	6.6219	-3.8520
H	3.3238	4.8110	-5.0797
H	2.2217	3.0527	-4.0045
*