! UKS B3LYP ma-def2-SVP OPT NumFreq
%basis

end 

%scf
  maxiter 200
end

%pal 
	nprocs 16
end
* xyz 0 1
H	-7.5202	0.2633	1.8260
H	-6.1876	3.9908	2.4565
H	-1.5078	1.9889	-7.3844
H	3.4446	6.2256	1.9636
H	5.2009	5.8089	0.5251
C	-5.5438	0.4994	1.4212
C	-6.8225	0.8780	1.8297
C	-7.0382	2.1695	2.2378
C	-6.0228	3.1095	2.2100
C	-1.2284	2.4372	-6.6190
C	-0.9879	3.7939	-6.6498
Cl	-8.6259	2.6376	2.7865
C	3.3785	5.5413	1.3370
Cl	-1.2219	4.6685	-8.1390
Fe	0.0000	0.0000	0.0000
H	-1.8642	-1.3731	-0.8129
H	1.8642	1.3731	0.8129
H	-0.7544	-1.6222	-1.6803
H	0.7544	1.6222	1.6803
H	4.3279	-2.5024	1.0101
H	-4.3279	2.5024	-1.0101
H	2.9907	-2.8136	3.0502
H	-2.9907	2.8136	-3.0502
H	-1.8973	-1.4514	4.5213
H	1.8973	1.4514	-4.5213
H	-3.6965	-0.1121	3.5211
H	3.6965	0.1121	-3.5211
H	1.2107	-0.8312	5.3872
H	-1.2107	0.8312	-5.3872
H	0.4146	-5.3976	5.5599
H	-0.4146	5.3976	-5.5599
H	0.0795	-4.2248	3.5831
H	-0.0795	4.2248	-3.5831
H	-5.3913	-0.3732	1.1379
H	5.3913	0.3732	-1.1379
H	-4.0590	3.3348	1.7943
H	4.0590	-3.3348	-1.7943
H	-0.5963	-2.8517	0.6966
H	0.5963	2.8517	-0.6966
H	-0.1239	-3.3979	-0.6940
H	0.1239	3.3979	0.6940
H	-1.5216	-4.9505	-1.8499
H	1.5216	4.9505	1.8499
H	-5.0400	-4.1018	1.0139
H	5.0400	4.1018	-1.0139
H	-3.1001	-2.8158	1.1516
H	3.1001	2.8158	-1.1516
C	2.6727	-1.4220	0.2400
C	-2.6727	1.4220	-0.2400
C	3.4668	-2.1858	1.1579
C	-3.4668	2.1858	-1.1579
C	2.7322	-2.3599	2.2800
C	-2.7322	2.3599	-2.2800
C	1.4660	-1.7038	2.0494
C	-1.4660	1.7038	-2.0494
C	0.4350	-1.6636	2.9827
C	-0.4350	1.6636	-2.9827
C	-0.7690	-1.0010	2.7749
C	0.7690	1.0010	-2.7749
C	-1.8720	-1.0162	3.7001
C	1.8720	1.0162	-3.7001
C	-2.8617	-0.2807	3.1485
C	2.8617	0.2807	-3.1485
C	-2.3820	0.1915	1.8775
C	2.3820	-0.1915	-1.8775
C	-3.1187	0.9890	1.0050
C	3.1187	-0.9890	-1.0050
C	0.6186	-2.4067	4.2707
C	-0.6186	2.4067	-4.2707
C	1.0450	-1.7463	5.4190
C	-1.0450	1.7463	-5.4190
C	0.5668	-4.4804	5.5252
C	-0.5668	4.4804	-5.5252
C	0.3754	-3.7743	4.3404
C	-0.3754	3.7743	-4.3404
C	-4.4964	1.4079	1.4312
C	4.4964	-1.4079	-1.4312
C	-4.7496	2.7113	1.8085
C	4.7496	-2.7113	-1.8085
C	-0.8436	-2.9355	-0.2375
C	0.8436	2.9355	0.2375
C	-2.1040	-3.7580	-0.3417
C	2.1040	3.7580	0.3417
C	-2.2235	-4.7753	-1.2663
C	2.2235	4.7753	1.2663
C	-4.4283	-5.2921	-0.4803
C	4.4283	5.2921	0.4803
C	-4.3294	-4.2759	0.4406
C	4.3294	4.2759	-0.4406
C	-3.1639	-3.4991	0.5230
C	3.1639	3.4991	-0.5230
N	1.4391	-1.1299	0.7908
N	-1.4391	1.1299	-0.7908
N	-1.0956	-0.2617	1.6472
N	1.0956	0.2617	-1.6472
N	-0.9970	-1.5724	-0.8249
N	0.9970	1.5724	0.8249
H	1.5078	-1.9889	7.3844
H	-3.4446	-6.2256	-1.9636
H	-5.2009	-5.8089	-0.5251
H	7.5202	-0.2633	-1.8260
H	6.1876	-3.9908	-2.4565
C	1.2284	-2.4372	6.6190
C	0.9879	-3.7939	6.6498
C	-3.3785	-5.5413	-1.3370
C	5.5438	-0.4994	-1.4212
C	6.8225	-0.8780	-1.8297
C	7.0382	-2.1695	-2.2378
C	6.0228	-3.1095	-2.2100
Cl	1.2219	-4.6685	8.1390
Cl	8.6259	-2.6376	-2.7865
*