! UKS B3LYP ma-def2-SVP OPT NumFreq
%basis

end 

%scf
  maxiter 200
end

%pal 
	nprocs 16
end
* xyz 0 1
Zn	0.1031	0.0000	0.1065
H	-2.7039	-4.8727	0.7220
C	1.9557	-0.7037	-6.0046
H	-4.0353	-6.3776	1.8951
C	1.9557	0.7037	-6.0046
C	1.8607	-1.3826	-4.8339
H	-4.8086	-5.9026	3.9380
C	1.8607	1.3826	-4.8339
C	1.0411	0.0000	3.0247
F	-0.7357	4.9082	3.2678
H	-4.3694	-3.8712	4.9097
H	-4.3694	3.8712	4.9097
H	-3.0580	-2.2830	3.7953
C	2.8104	0.0000	1.5935
H	-3.0580	2.2830	3.7953
N	1.3539	0.0000	-1.5062
O	1.4815	0.0000	1.7166
F	3.4435	-4.7929	-0.1690
F	3.2258	-6.6842	1.6738
F	1.1675	-6.7303	3.3695
F	2.0083	-1.3471	-7.1801
F	2.0083	1.3471	-7.1801
F	1.7293	-2.7159	-4.9302
F	1.7293	2.7159	-4.9302
C	0.1877	-3.9545	1.2730
C	0.1877	3.9545	1.2730
C	-0.6269	-2.7864	0.9561
C	-0.6269	2.7864	0.9561
C	-1.9219	-2.4142	1.4154
C	-1.9219	2.4142	1.4154
C	-2.4687	-1.1256	1.2373
C	-2.4687	1.1256	1.2373
C	-3.8576	-0.7108	1.3222
C	-3.8576	0.7108	1.3222
C	-2.7465	-3.4175	2.1310
C	-2.7465	3.4175	2.1310
C	-3.0330	-4.6511	1.5629
C	-3.8288	-5.5551	2.2776
H	2.2686	0.7888	4.4649
H	2.2686	-0.7888	4.4649
H	3.9365	-0.7888	3.1532
C	-4.2955	-5.2733	3.4830
H	4.6034	5.8210	-4.3388
H	3.9365	0.7888	3.1532
C	-4.0278	-4.0627	4.0666
H	2.5013	6.4148	-3.5993
H	1.2513	4.9436	-2.3777
C	-3.2432	-3.1055	3.4003
C	-4.0278	4.0627	4.0666
C	-3.2432	3.1055	3.4003
C	0.1802	-4.8922	2.3042
C	-5.0563	-1.3719	1.2297
C	-5.0563	1.3719	1.2297
C	-6.2400	-0.6895	1.2089
C	-6.2400	0.6895	1.2089
N	0.0150	-2.0686	-0.0166
N	0.0150	2.0686	-0.0166
N	-1.6829	0.0000	1.0592
F	-0.7357	-4.9082	3.2678
F	-5.1489	-2.7208	1.0435
F	-5.1489	2.7208	1.0435
F	-7.4099	-1.3259	1.1142
C	4.1004	5.2184	-3.8407
F	-7.4099	1.3259	1.1142
C	2.8404	5.5711	-3.4039
C	2.0896	4.6884	-2.6884
C	2.3299	4.8302	0.5311
C	2.2323	5.7927	1.5042
C	1.1762	5.8122	2.3859
C	2.2573	0.0000	3.8995
C	3.3834	0.0000	3.0139
H	-2.7039	4.8727	0.7220
H	-4.0353	6.3776	1.8951
H	-4.8086	5.9026	3.9380
F	3.4435	4.7929	-0.1690
F	3.2258	6.6842	1.6738
F	1.1675	6.7303	3.3695
H	4.1730	-2.2157	-2.6040
H	4.1730	2.2157	-2.6040
H	5.4793	-3.7330	-3.8152
H	5.4793	3.7330	-3.8152
H	4.6034	-5.8210	-4.3388
H	2.5013	-6.4148	-3.5993
H	1.2513	-4.9436	-2.3777
H	0.5018	-0.7870	3.1980
H	0.5018	0.7870	3.1980
H	3.1044	0.7870	1.1162
H	3.1044	-0.7870	1.1162
C	-3.0330	4.6511	1.5629
C	1.0724	-2.7634	-0.4884
C	1.0724	2.7634	-0.4884
C	1.2638	-3.9386	0.3680
C	-3.8288	5.5551	2.2776
C	1.2638	3.9386	0.3680
C	-4.2955	5.2733	3.4830
C	1.8469	-0.7090	-3.6176
C	1.8469	0.7090	-3.6176
C	1.6066	-1.1167	-2.2547
C	1.6066	1.1167	-2.2547
C	1.7218	-2.4124	-1.6853
C	1.7218	2.4124	-1.6853
C	0.1802	4.8922	2.3042
C	2.5639	-3.4033	-2.4171
C	2.5639	3.4033	-2.4171
C	3.8351	-3.0559	-2.8157
C	3.8351	3.0559	-2.8157
C	4.6222	-3.9652	-3.5401
C	4.6222	3.9652	-3.5401
C	4.1004	-5.2184	-3.8407
C	2.8404	-5.5711	-3.4039
C	2.0896	-4.6884	-2.6884
C	2.3299	-4.8302	0.5311
C	2.2323	-5.7927	1.5042
C	1.1762	-5.8122	2.3859
*