! UKS B3LYP ma-def2-SVP OPT NumFreq
%basis
NewGTO Ru "ma-def2-TZVP" end
end 

%scf
  maxiter 200
end

%pal 
	nprocs 16
end
* xyz 0 1
H	4.7082	2.8621	1.7537
H	6.7993	2.3323	0.9114
H	-6.9333	-2.3379	-0.2090
H	-6.5549	-0.8340	0.0177
C	5.0123	1.9448	1.8351
C	6.0903	1.6954	0.7960
C	4.7012	-0.9935	3.0662
C	5.4312	-2.0596	2.3003
H	3.2421	6.0112	-2.0692
C	-6.2084	-1.7245	-0.0687
H	5.3479	-0.3726	3.4364
H	2.4385	-2.5231	2.6319
H	-3.2103	-2.9940	0.2267
H	1.8596	-4.7292	2.7559
H	0.7066	-5.7482	2.4639
H	-0.3582	-5.1530	4.4136
H	-2.4441	-5.1659	0.6841
H	-1.4467	-5.9216	1.6264
H	-3.5430	-5.8895	2.6060
H	-2.5630	-5.0471	3.4935
H	-3.5745	-4.3235	2.5394
H	-5.7428	-1.5565	-2.0602
H	-4.9247	-2.6890	-1.3467
H	-5.7362	-1.9643	0.7324
H	-4.5122	1.6601	-3.0839
H	-5.5854	0.5511	-2.8174
H	-6.2899	1.7136	-0.8981
H	-2.7338	2.7519	-1.9435
H	2.8780	3.2293	0.5212
H	0.0450	-2.3882	-1.2835
H	0.8642	-3.0925	-3.3120
H	2.1739	0.5757	-4.0609
H	1.4074	1.2801	-2.0119
Ru	-0.2015	0.1515	0.4559
C	2.5789	1.3464	1.0593
C	3.8322	1.0382	1.7235
C	3.7120	-0.2249	2.2232
C	2.4070	-0.7226	1.8342
C	1.8883	-1.9632	2.1333
C	0.6420	-2.4877	1.7834
C	0.1734	-3.8279	2.0664
C	-1.0791	-3.9360	1.5271
C	-1.3948	-2.6408	0.9322
C	-2.5637	-2.3272	0.2665
C	-2.8764	-1.1230	-0.3493
C	-4.1071	-0.8457	-1.0825
C	-3.9971	0.4216	-1.5591
C	-2.7118	0.9343	-1.1282
H	-6.4458	2.6052	-2.1773
H	-5.2380	2.8354	-1.2050
H	-2.1291	4.9954	-2.0769
C	0.9060	-4.8801	2.8489
H	-0.8409	5.8871	-2.1567
H	-1.5513	5.2063	-4.2929
C	0.5651	-4.9122	4.3051
H	-0.0951	4.7064	-3.9991
C	-1.9826	-5.1188	1.5368
H	-1.3026	3.7142	-3.8850
C	-3.0090	-5.0920	2.6450
H	1.1762	6.1472	-0.9375
C	-5.2602	-1.7845	-1.2507
H	2.2215	5.3551	-0.0793
C	-4.9881	1.1827	-2.3867
C	-5.8162	2.1749	-1.5947
H	3.1383	4.4474	-2.0706
H	2.1240	5.3005	-2.9083
C	0.6022	-0.4647	-1.4000
C	0.4758	-1.7749	-1.8345
C	0.9633	-2.2062	-3.0507
C	1.5912	-1.3124	-3.8613
C	1.7481	-0.0247	-3.4914
C	1.2742	0.3959	-2.2677
N	1.7520	0.2568	1.1292
N	-0.3331	-1.8016	1.0985
N	-2.0616	-0.0247	-0.3901
N	-0.0391	2.0700	-0.2910
N	-0.6946	0.9771	1.9741
O	-0.6810	1.8067	2.7512
F	2.0734	-1.7149	-5.0724
C	-2.1951	2.1974	-1.4267
C	-0.9734	2.7176	-1.0430
C	-0.4697	4.0396	-1.3917
C	0.7595	4.1594	-0.8335
C	1.0359	2.9060	-0.1498
C	2.2316	2.5613	0.4815
H	4.2288	-1.4045	3.8073
H	1.1176	-5.5587	4.7489
H	0.7152	-4.0452	4.6884
C	-1.1849	4.9912	-2.2991
H	5.4014	1.8410	2.7186
C	-1.0186	4.6208	-3.7508
C	1.6940	5.3283	-0.8930
H	6.4375	0.8070	0.9019
C	2.6374	5.2662	-2.0965
H	5.7156	1.7896	-0.0834
H	6.0129	-2.5391	2.8964
H	4.7961	-2.6686	1.9160
H	5.9499	-1.6539	1.6035
*