! UKS B3LYP ma-def2-SVP OPT NumFreq
%basis

end 

%scf
  maxiter 200
end

%pal 
	nprocs 16
end
* xyz 0 1
C	-1.7089	3.6784	-3.0301
C	-2.9419	3.5846	-3.6338
C	-4.9419	4.5483	-4.8658
C	-0.1556	1.7286	-3.2617
C	0.0414	2.0503	-4.6505
C	-3.5613	4.6898	-4.2298
C	-1.0513	4.9163	-2.9814
C	-4.9234	3.3924	-5.8781
C	-5.9619	4.2221	-3.7705
C	2.3641	-0.6071	-4.0696
C	0.9832	1.1953	-5.0860
C	1.3644	0.3671	-3.9965
H	-2.4246	2.5955	1.7528
H	-2.4905	3.7201	-0.4419
H	-3.2936	-0.5118	2.5971
H	-0.1891	-1.8330	3.6546
H	-0.2056	1.6094	4.1051
H	-3.6820	1.4038	6.1187
O	3.0198	-0.5997	-5.2484
H	0.0247	3.5712	5.1697
H	0.3590	3.7395	6.7258
Ni	0.7043	-0.2285	-1.1127
H	4.1648	-3.9155	-1.6773
H	-3.2896	6.6993	-4.5494
H	4.7269	-3.3226	1.3241
H	4.6230	-7.3058	2.0688
H	4.2246	-2.7074	-3.8404
H	-0.8657	2.3825	8.3922
H	-2.0672	1.4321	7.9291
H	-0.5576	1.0448	7.5676
H	-5.9418	1.5081	3.4106
H	-2.5445	8.6328	-3.8274
H	-5.4679	0.3254	2.4418
H	1.4424	-3.4656	2.7791
H	-6.8455	0.1973	3.2472
H	-2.1890	8.3706	-2.2891
H	-1.3047	9.3865	-3.1530
H	1.4911	-5.5034	0.2663
H	0.3647	-7.3028	0.6298
H	-0.0262	7.1819	-1.7016
H	0.6869	8.3170	-2.5765
H	-6.7557	-0.2168	5.7660
H	-5.3262	-0.1945	6.4849
H	0.7142	2.3721	5.9730
H	-5.9354	1.1521	5.8737
H	-4.9588	-1.9016	3.3562
H	-4.7181	-2.1012	4.9260
H	-6.2063	-1.9522	4.3562
H	2.7297	-8.4989	3.0223
H	-1.9783	4.2921	7.3493
H	1.2890	-7.8122	2.8939
H	-2.2738	4.3115	5.7770
H	-3.1764	3.4162	6.7500
H	0.0501	8.5434	-5.0153
H	0.3357	6.9764	-5.1774
H	6.9308	-3.8440	0.9642
H	-1.0741	7.5841	-5.6295
H	8.1641	-4.5545	1.6967
H	7.3219	-5.3500	0.5921
H	-4.7692	6.0528	-6.3131
C	-1.0939	1.1670	0.8559
H	-5.4640	6.5742	-4.9685
C	-1.0097	2.4704	-2.4352
H	3.3708	-8.8237	-0.4846
H	4.0635	-9.0412	0.9421
C	-0.0241	-0.8574	1.7472
H	7.7484	-6.4299	3.3062
H	6.2444	-6.8574	3.6464
C	-1.1787	2.1561	-1.1031
H	6.8707	-7.2045	2.2170
C	-1.6178	0.4594	3.1685
H	1.2086	-7.6975	-0.6705
C	-1.9642	2.3199	0.9682
H	0.5645	-8.8430	0.2437
H	0.9667	6.7738	-2.8874
H	6.0535	-3.3211	3.2148
C	-2.0079	2.9306	-0.2246
H	5.7019	-4.5024	4.2344
H	7.2299	-4.1359	3.9310
C	-2.9269	0.0215	3.2911
C	2.6325	-2.5391	-1.1070
C	0.2094	-1.8271	2.7913
C	-0.8701	0.2524	1.8904
C	4.9216	-5.3008	1.8144
H	-3.3866	2.7444	-3.6475
C	-3.7329	0.3343	4.3954
C	-1.0943	1.2832	4.1818
C	3.6264	-3.1722	-1.9226
C	-2.8803	5.9292	-4.1689
C	-3.1581	1.1551	5.3680
H	-0.4003	2.7251	-5.1526
C	4.2769	-4.1583	1.2912
H	-0.2090	4.9878	-2.5466
C	-0.8969	7.4054	-3.5856
C	-1.8529	1.6258	5.2814
C	-5.1942	-0.1141	4.4354
H	-4.6610	2.5642	-5.4235
C	-1.2985	2.5582	6.3862
H	-5.8177	3.2822	-6.2667
C	0.0713	3.1094	6.0328
H	-4.2810	3.5905	-6.5903
C	4.2176	-6.5208	1.7203
C	2.9609	-6.6280	1.1389
C	3.0086	-4.2164	0.7327
C	-1.1878	1.7866	7.6827
C	-5.9268	0.5369	3.2831
C	1.3969	-2.3067	0.9769
C	2.6715	-1.4785	-3.0266
C	3.6582	-2.5168	-3.1029
C	-5.8610	0.1824	5.7566
C	-5.2769	-1.6603	4.2516
H	-6.0226	4.9744	-3.1474
C	2.3386	-2.9890	0.1893
H	-6.8392	4.0642	-4.1792
C	-2.2713	3.7544	6.5829
N	-0.6019	1.0821	-0.4191
H	-5.6765	3.4177	-3.2898
H	1.4918	-9.3391	2.4557
C	1.0894	-2.7134	2.3183
C	-1.8158	8.5509	-3.1774
H	3.4445	-1.3191	-5.3378
C	-1.6385	6.0558	-3.5754
C	2.3573	-5.4557	0.6554
C	0.2915	7.4217	-2.5966
C	2.2502	-8.0044	1.0803
H	-6.2929	5.6774	-6.0004
H	1.3322	1.1521	-5.9700
H	2.8100	-9.9394	0.5148
C	1.9104	-8.4528	2.4883
C	7.2710	-4.6931	1.3163
C	-0.3480	7.6482	-4.9744
C	-5.4103	5.8324	-5.6046
C	3.2117	-9.0486	0.4562
C	6.3410	-5.2010	2.3912
C	6.8468	-6.5446	2.9399
C	0.9858	-7.9582	0.2475
C	6.3311	-4.2015	3.5458
N	2.0541	-1.5009	-1.7957
N	0.7002	-1.1568	0.6242
N	0.6601	0.6799	-2.8573
*