! UKS B3LYP ma-def2-SVP OPT NumFreq
%basis

end 

%scf
  maxiter 200
end

%pal 
	nprocs 16
end
* xyz 0 1
C	2.5705	1.3816	-5.7868
Fe	0.1161	-1.1554	-0.0604
C	2.4926	2.7013	-5.0121
H	1.9629	0.3860	-4.3575
C	1.1595	3.3403	-5.4133
H	-4.3102	0.5073	-0.8668
C	2.5607	2.5299	-3.5040
H	-1.0065	1.2753	4.2910
H	1.2148	-0.4263	4.8921
C	-4.5143	-1.8738	-1.5679
C	-5.5019	-0.8705	-1.5664
C	-6.7877	-1.1504	-2.0153
C	-7.1080	-2.4268	-2.4412
H	-0.9461	-1.9681	-5.0065
C	-6.1582	-3.4391	-2.4376
H	-3.1751	-1.8757	-3.9142
C	-4.8729	-3.1476	-1.9962
H	-4.8449	-1.6543	1.1121
C	-5.9080	1.4274	-0.6868
H	-3.7278	-1.3579	3.3082
C	-5.2319	2.5669	0.0923
H	-0.7648	0.9365	-2.2985
C	-5.4787	3.8633	-0.7066
H	-0.1144	3.8681	0.3383
C	-5.9029	2.6133	1.4390
H	0.4307	1.6911	1.3889
C	-3.7381	2.4252	0.2781
C	-1.3673	-1.1852	4.6123
H	-1.8536	4.1222	-2.0342
C	-1.5692	-0.1268	5.5138
H	-0.3278	4.3975	-2.4331
H	-1.1608	3.2579	-3.1883
C	-1.9063	-0.4020	6.8461
H	-1.6711	-3.6485	0.5255
C	-2.0812	-1.7009	7.2553
H	1.5709	-5.9622	0.5692
C	-1.9218	-2.7600	6.3721
H	2.2689	-3.6061	0.1677
C	-1.5515	-2.4899	5.0544
C	4.1835	-0.9822	-1.3533
H	-1.2495	-6.8534	-0.0632
C	-1.9680	2.3261	5.5525
C	3.5988	-1.3182	-2.5256
H	-0.8677	-6.9362	1.4881
C	-1.7971	3.6094	4.7473
H	-2.1236	-6.0642	1.0203
C	-3.1288	3.8489	4.0552
C	-1.5155	4.7439	5.7430
C	-0.6543	3.5611	3.7367
C	3.3495	-0.6057	0.9762
H	2.9425	3.0558	-0.4060
H	2.5838	4.6111	-0.5319
N	0.9943	-0.7849	1.6915
N	1.9006	-1.1279	-0.9524
H	2.0066	4.6342	1.8906
N	-0.7531	-1.5263	-1.8120
H	2.4373	3.1059	2.0920
N	-1.6598	-1.1872	0.8366
H	3.1006	4.2512	2.9930
N	-0.1042	0.7987	-0.4006
N	-0.5824	2.7363	-1.3404
N	0.2570	-3.1136	0.2782
N	-0.3584	-5.1994	0.6323
H	2.5003	-0.7708	-7.5680
H	2.4206	-3.0171	-8.1763
C	4.7702	-0.4815	1.4290
N	2.1092	0.2775	-5.1426
H	1.9899	-4.6668	-6.5875
C	5.4309	0.7616	1.4967
H	1.4989	-4.0450	-4.3890
N	-5.1165	0.3957	-1.0688
N	-1.4186	1.1875	5.0413
C	6.7819	0.8085	1.8501
H	1.0747	4.2165	-4.9840
C	7.4528	-0.3562	2.1897
H	1.1300	3.4485	-6.3875
C	6.8079	-1.5787	2.1656
H	0.4217	2.7632	-5.1254
C	5.4770	-1.6320	1.7716
C	5.0067	3.2289	1.3430
O	2.9642	1.3579	-6.9430
H	2.5208	3.4100	-3.0743
O	-7.0977	1.4603	-0.9345
C	3.8693	4.2109	1.0559
H	1.8061	1.9837	-3.2033
O	-2.6095	2.3221	6.5912
C	3.2998	3.9665	-0.3528
H	-7.4454	-0.4648	-2.0305
H	-7.9905	-2.6129	-2.7412
H	-6.3823	-4.3145	-2.7299
H	-4.2202	-3.8391	-1.9855
H	-5.0904	4.6227	-0.2258
H	-5.0596	3.7873	-1.5904
H	-6.4428	4.0029	-0.8125
H	3.9554	1.7392	1.0041
H	-5.5622	3.3792	1.9460
H	-6.8708	2.7055	1.3184
H	-5.7113	1.7854	1.9277
C	3.6341	3.5959	-5.4761
H	-3.5479	1.5987	0.7693
H	-3.3024	2.3917	-0.5986
H	3.4027	-0.1549	3.7523
H	-3.3975	3.1925	0.7845
H	5.1111	-0.8440	-1.2012
H	-2.0130	0.3090	7.4658
H	4.0377	-1.4695	-3.3559
H	-2.3151	-1.8776	8.1595
H	-2.0632	-3.6543	6.6612
H	-1.4217	-3.2096	4.4477
H	-3.8435	3.8854	4.7265
C	4.4143	5.6357	1.1440
H	-3.0941	4.6977	3.5667
H	-3.3075	3.1174	3.4271
H	-2.2470	4.7978	6.3937
H	-0.6736	4.5668	6.2106
H	-0.5129	4.4552	3.3612
H	0.1646	3.2599	4.1820
H	-0.8818	2.9365	3.0158
H	7.2411	1.6391	1.8567
C	0.4016	-0.7591	2.9313
H	8.3672	-0.3146	2.4414
C	2.3368	-0.5622	1.9300
H	7.2681	-2.3704	2.4149
C	3.1277	-0.8744	-0.3788
H	5.0378	-2.4743	1.7338
C	2.1824	-1.4033	-2.2746
H	4.0133	4.0779	-1.0169
C	-0.1358	-1.6890	-3.0367
C	-2.1026	-1.6316	-2.0707
C	-2.8852	-1.4101	0.2531
C	-1.9074	-1.1527	2.1911
C	1.3782	-0.4913	3.9591
C	2.5701	-0.3523	3.3392
H	-1.4474	5.5947	5.2600
C	-1.1183	-1.8511	-4.0785
C	-2.3311	-1.8060	-3.4835
N	4.6722	1.9090	1.2039
C	-3.9187	-1.5065	1.2613
C	-3.3105	-1.3462	2.4560
C	1.2406	-1.6838	-3.2597
C	-3.1130	-1.6010	-1.1147
C	-0.9484	-0.9837	3.1917
O	6.1180	3.5971	1.6752
H	3.4014	2.0876	-3.2628
C	-0.5283	1.3929	-1.4987
C	-0.1774	3.0112	-0.0693
C	0.1183	1.8104	0.5008
H	4.4902	3.1713	-5.2598
C	-1.0168	3.7072	-2.3291
H	3.5711	3.7295	-6.4462
C	-0.7646	-3.9280	0.4860
H	3.5749	4.4629	-5.0243
C	0.9994	-5.2049	0.5111
C	1.3772	-3.9076	0.2913
C	-1.2199	-6.3572	0.7819
H	5.1175	5.7583	0.4723
H	3.6893	6.2742	0.9789
H	4.7858	5.7891	2.0368
C	2.7509	4.0340	2.1039
C	1.6984	-2.0383	-4.6460
C	2.0501	-1.0599	-5.5906
C	2.3014	-1.4316	-6.9172
C	2.2582	-2.7688	-7.2726
C	1.9835	-3.7496	-6.3392
C	1.6983	-3.3742	-5.0331
*