! UKS B3LYP ma-def2-SVP OPT NumFreq
%basis

end 

%scf
  maxiter 200
end

%pal 
	nprocs 16
end
* xyz 0 1
Co	0.1167	-0.0301	-0.0465
H	-0.7395	-4.4272	2.3986
H	-1.4272	-4.8906	0.0720
H	-1.4602	-2.1487	-4.4068
H	-0.5503	0.0264	-5.1062
H	0.8742	-0.1302	4.9831
H	-0.2890	-4.3771	-3.6024
H	-1.3511	-6.0840	-4.7590
H	-3.5264	-6.6750	-4.2270
C	1.5910	3.4966	-1.8864
H	-4.6706	-5.5269	-2.5725
C	1.8923	3.7760	-0.6059
H	-3.6375	-3.7474	-1.4502
C	1.4769	2.6586	0.1821
C	1.5980	2.6053	1.5683
C	1.1976	1.5137	2.3085
H	1.0474	3.7227	-7.7755
C	1.3207	1.4313	3.7406
H	-1.0398	3.6840	-6.7667
H	-1.2850	2.7958	-4.6244
H	0.5259	4.6981	2.8519
H	-1.8606	-2.8075	4.4726
C	2.1135	5.8849	3.4546
H	-1.6975	-3.9750	6.4804
C	3.4129	5.9899	3.4561
H	0.3657	-4.5418	7.3412
C	1.9013	2.3114	-4.9862
H	-1.8867	1.3926	-0.5118
C	2.0274	2.8556	-6.2420
H	-2.0949	0.0975	1.8447
C	-0.3551	-2.4361	1.7385
C	-0.7415	-3.8087	1.6785
C	-1.1098	-4.0622	0.4103
C	2.2377	3.7728	2.2651
C	-0.9347	-2.8544	-0.3363
C	1.4739	4.7643	2.8509
C	-1.1999	-2.7349	-1.6947
C	-0.8706	-1.6190	-2.4172
C	-1.0608	-1.4996	-3.8396
C	4.1777	4.9984	2.9096
C	-0.5743	-0.3175	-4.2201
C	3.5831	3.8907	2.3211
C	-0.0948	0.3397	-3.0387
C	0.4978	1.5928	-3.0477
C	0.9813	2.2064	-1.9005
C	1.4448	-3.6892	5.8683
C	1.3718	-2.9496	4.6989
C	0.9073	0.2105	4.0976
C	0.5239	-0.4919	2.9135
C	0.0784	-1.8047	2.8950
C	-1.8566	-3.8862	-2.4001
C	-1.1879	-4.5984	-3.3921
C	-1.8146	-5.6189	-4.0733
C	-3.1019	-5.9629	-3.7641
C	-3.7786	-5.2830	-2.7900
C	-3.1570	-4.2302	-2.1137
C	0.6550	2.2742	-4.3732
C	0.9463	3.3578	-6.9046
C	-0.2840	3.3335	-6.3085
C	-0.4311	2.7990	-5.0380
C	0.1425	-2.5992	4.1659
C	-1.0057	-3.0126	4.8318
C	-0.9076	-3.7199	6.0184
C	0.3086	-4.0542	6.5284
C	-1.5994	0.8145	0.1836
C	-2.3642	0.6804	1.1432
N	-0.4301	-1.8438	0.4781
N	-0.2650	-0.4730	-1.9256
N	0.9243	1.6745	-0.6179
N	0.6820	0.3257	1.8018
Cl	-3.9104	1.4875	1.3063
H	1.7532	4.0521	-2.6390
H	2.3037	4.5705	-0.2847
H	1.6350	2.1144	4.3209
H	1.5870	6.5631	3.8603
H	3.8283	6.7553	3.8369
H	2.6631	1.9610	-4.5399
H	2.8823	2.8814	-6.6544
H	5.1247	5.0678	2.9317
H	4.1286	3.2060	1.9526
H	2.2927	-3.9427	6.2135
H	2.1706	-2.6816	4.2605
*