! UKS B3LYP ma-def2-SVP OPT NumFreq
%basis

end 

%scf
  maxiter 200
end

%pal 
	nprocs 16
end
* xyz 0 1
C	-2.8275	-5.2306	7.9075
H	4.2096	1.0237	-6.3367
C	-1.6146	-3.4755	9.2158
H	7.9294	-1.2752	-5.5517
C	-1.6432	0.9215	-8.5292
H	6.7980	-2.0186	-4.6698
H	8.6084	-1.6565	-3.5299
H	8.4730	-0.0914	-3.8355
H	7.3565	-0.8361	-2.9631
H	7.1459	3.9639	-5.0134
H	5.8233	4.7951	-5.3806
H	1.1095	-3.4225	2.9780
C	-7.0822	-4.5774	6.9012
H	1.5024	-4.5437	4.0493
H	2.3756	-1.7913	4.1542
H	5.9531	-3.1122	2.2983
H	6.5505	-3.3479	3.7706
H	7.7423	-1.6240	2.6880
H	6.9777	-1.0346	3.9649
H	6.3837	-0.8000	2.4976
H	1.9338	-0.0361	8.2273
H	-1.5920	-4.6051	-2.8804
H	3.0515	5.9693	4.0636
H	5.0630	5.0466	6.4019
H	6.5262	5.6914	6.4549
H	6.3143	4.2430	5.8109
H	7.4165	5.0057	3.7457
H	-1.9392	-1.8189	-4.4227
H	6.0616	3.5031	3.1933
H	-0.5847	0.1395	-5.1318
H	-2.4300	-3.7509	2.6117
H	4.6056	2.1269	2.0331
H	-3.1499	-4.0914	0.2553
H	1.9809	-1.9248	-2.1824
H	2.7181	-0.5209	-1.9349
H	-0.4788	4.5798	-6.2292
H	3.7764	-3.0616	-1.7528
H	2.3188	2.8198	-9.0325
H	4.5505	-1.6698	-1.9991
H	4.2647	-2.9618	0.3875
H	5.0569	-1.5807	0.1390
H	3.3167	-0.3441	0.7808
H	2.7864	-1.6926	1.4773
H	-2.9255	-2.5443	6.8480
H	-3.1331	-1.0791	3.6864
H	-2.6061	-0.0830	4.8170
H	-4.2096	-1.0237	6.3367
H	-7.9294	1.2752	5.5517
C	1.3355	1.3352	2.4171
H	-6.7980	2.0186	4.6698
C	1.4445	1.2399	3.8554
H	-8.6084	1.6565	3.5299
C	0.7071	0.1709	4.2429
H	-8.4730	0.0914	3.8355
C	0.1432	-0.4085	3.0432
H	-7.3565	0.8361	2.9631
C	0.6579	1.5679	-3.0124
H	-7.1459	-3.9639	5.0134
C	1.2536	2.1078	-1.8607
H	0.3832	6.1389	-7.6162
C	2.1604	3.2391	-1.8582
H	-5.8233	-4.7951	5.3806
C	2.5495	3.4265	-0.5727
C	1.8787	2.4237	0.2240
C	0.8704	2.2912	-4.3210
H	-1.1095	3.4225	-2.9780
C	0.0602	-3.2446	4.7450
C	-0.1552	-3.9290	5.9504
H	-1.5024	4.5437	-4.0493
C	-1.2520	-3.6884	6.7436
H	-2.3756	1.7913	-4.1542
H	-5.9531	3.1122	-2.2983
H	-6.5505	3.3479	-3.7706
H	-7.7423	1.6240	-2.6880
H	-6.9777	1.0346	-3.9649
H	-6.3837	0.8000	-2.4976
C	2.1632	2.7272	-6.3099
C	2.0019	2.0246	-5.1168
C	2.9981	0.9792	-4.6613
C	4.3590	1.0394	-5.3474
C	5.1793	-0.1973	-4.9676
H	-1.9338	0.0361	-8.2273
H	1.5920	4.6051	2.8804
C	7.3309	-1.1898	-4.7661
C	7.9782	-0.9287	-3.7146
H	-3.0515	-5.9693	-4.0636
C	5.0940	2.3290	-4.9973
H	-5.0630	-5.0466	-6.4019
C	6.4626	4.1155	-5.7128
H	-6.5262	-5.6914	-6.4549
H	-6.3143	-4.2430	-5.8109
C	1.2995	-3.5813	3.9375
C	2.5434	-2.7585	4.3438
H	-7.4165	-5.0057	-3.7457
C	3.7728	-3.2156	3.5685
C	6.0755	-2.7019	3.1904
C	6.8634	-1.4292	3.0756
C	2.8325	-2.9353	5.8186
C	2.5619	-1.9681	7.9670
H	-6.0616	-3.5031	-3.1933
H	-4.6056	-2.1269	-2.0331
H	-1.9809	1.9248	2.1824
C	1.9944	2.2899	1.6238
H	-2.7181	0.5209	1.9349
C	2.9353	3.2161	2.3379
H	-3.7764	3.0616	1.7528
C	2.5077	4.3609	2.9412
H	-4.5505	1.6698	1.9991
C	3.3884	5.1849	3.6485
H	-4.2647	2.9618	-0.3875
C	4.7199	4.8934	3.7568
H	-5.0569	1.5807	-0.1390
C	5.6858	5.7720	4.5685
H	-3.3167	0.3441	-0.7808
C	5.9171	5.1308	5.9300
H	-2.7864	1.6926	-1.4773
C	7.0240	5.8959	3.8598
C	5.1443	3.7425	3.1405
C	4.2717	2.9161	2.4437
C	2.5776	-1.4292	-1.5671
C	3.8576	-2.1209	-1.4538
C	4.1997	-2.0535	-0.0001
C	3.0522	-1.2836	0.6166
C	-1.3355	-1.3352	-2.4171
C	-1.4445	-1.2399	-3.8554
C	-0.7071	-0.1709	-4.2429
N	0.5276	0.3306	1.9523
C	-0.1432	0.4085	-3.0432
N	1.1013	1.6350	-0.5837
C	-0.6579	-1.5679	3.0124
C	-1.2536	-2.1078	1.8607
O	4.7781	-1.2307	-4.7154
C	-2.1604	-3.2391	1.8582
H	3.5602	4.6051	-7.7249
O	6.4322	0.0505	-4.8725
H	3.0140	5.7178	-8.7382
C	-2.5495	-3.4265	0.5727
H	2.7500	5.8670	-7.1655
O	5.0529	2.8499	-3.9064
C	-1.8787	-2.4237	-0.2240
O	5.7467	2.8463	-6.0021
C	-0.8704	-2.2912	4.3210
O	3.8300	-4.1816	2.8708
O	4.7850	-2.3605	3.7685
C	-0.0602	3.2446	-4.7450
O	3.2738	-3.9362	6.3069
C	0.1552	3.9290	-5.9504
O	2.4691	-1.8584	6.5102
C	1.2520	3.6884	-6.7436
O	1.9847	-1.3401	-0.3031
H	1.8268	3.9627	-10.0392
C	-2.1632	-2.7272	6.3099
C	-2.0019	-2.0246	5.1168
C	-2.9981	-0.9792	4.6613
C	-4.3590	-1.0394	5.3474
H	-0.6304	-5.9560	9.1858
C	-5.1793	0.1973	4.9676
H	0.4385	-5.0345	8.4304
C	-7.3309	1.1898	4.7661
C	-7.9782	0.9287	3.7146
H	7.5577	5.4147	-6.7160
C	-5.0940	-2.3290	4.9973
H	7.7185	3.9037	-7.2205
C	-6.4626	-4.1155	5.7128
H	6.4002	4.7326	-7.5862
H	-0.7573	-3.0135	9.3204
C	-1.2995	3.5813	-3.9375
C	-2.5434	2.7585	-4.3438
C	-3.7728	3.2156	-3.5685
C	-6.0755	2.7019	-3.1904
C	-6.8634	1.4292	-3.0756
C	-2.8325	2.9353	-5.8186
C	-2.5619	1.9681	-7.9670
C	-1.9944	-2.2899	-1.6238
C	-2.9353	-3.2161	-2.3379
C	-2.5077	-4.3609	-2.9412
C	-3.3884	-5.1849	-3.6485
C	-4.7199	-4.8934	-3.7568
C	-5.6858	-5.7720	-4.5685
C	-5.9171	-5.1308	-5.9300
C	-7.0240	-5.8959	-3.8598
C	-5.1443	-3.7425	-3.1405
C	-4.2717	-2.9161	-2.4437
C	-2.5776	1.4292	1.5671
C	-3.8576	2.1209	1.4538
C	-4.1997	2.0535	0.0001
C	-3.0522	1.2836	-0.6166
H	3.4921	-1.8093	8.2688
H	2.2834	-2.8704	8.2656
H	1.6679	-0.9576	9.5085
H	0.7289	-1.0899	8.2204
N	-0.5276	-0.3306	-1.9523
N	-1.1013	-1.6350	0.5837
H	0.6304	5.9560	-9.1858
O	-4.7781	1.2307	4.7154
H	-0.4385	5.0345	-8.4304
O	-6.4322	-0.0505	4.8725
O	-5.0529	-2.8499	3.9064
O	-5.7467	-2.8463	6.0021
O	-3.8300	4.1816	-2.8708
O	-4.7850	2.3605	-3.7685
H	0.7573	3.0135	-9.3204
O	-3.2738	3.9362	-6.3069
O	-2.4691	1.8584	-6.5102
O	-1.9847	1.3401	0.3031
H	-3.5602	-4.6051	7.7249
H	-3.0140	-5.7178	8.7382
H	-2.7500	-5.8670	7.1655
H	-2.3188	-2.8198	9.0325
H	6.8907	6.3097	2.9810
H	-6.8907	-6.3097	-2.9810
H	-1.8268	-3.9627	10.0392
H	7.6266	6.4529	4.3956
H	-7.6266	-6.4529	-4.3956
H	4.9818	7.6078	3.9130
H	-4.9818	-7.6078	-3.9130
H	5.7750	7.7088	5.2989
H	-5.7750	-7.7088	-5.2989
C	2.8275	5.2306	-7.9075
H	-4.2839	-7.1278	-5.2715
C	1.6146	3.4755	-9.2158
H	4.2839	7.1278	5.2715
H	-3.4921	1.8093	-8.2688
H	-2.2834	2.8704	-8.2656
H	-1.6679	0.9576	-9.5085
H	-0.7289	1.0899	-8.2204
H	-7.5577	-5.4147	6.7160
H	-7.7185	-3.9037	7.2205
H	-6.4002	-4.7326	7.5862
C	7.0822	4.5774	-6.9012
C	-0.4257	-5.4905	8.3479
C	-1.5242	-4.4583	8.0546
C	1.6432	-0.9215	8.5292
H	-0.3832	-6.1389	7.6162
C	0.4257	5.4905	-8.3479
Zn	0.0000	-0.0000	0.0000
H	1.9392	1.8189	4.4227
C	1.5242	4.4583	-8.0546
H	0.5847	-0.1395	5.1318
H	2.4300	3.7509	-2.6117
H	3.1499	4.0914	-0.2553
H	0.4788	-4.5798	6.2292
C	5.1323	7.1807	4.7822
C	-5.1323	-7.1807	-4.7822
H	2.9255	2.5443	-6.8480
H	3.1331	1.0791	-3.6864
H	2.6061	0.0830	-4.8170
*