! UKS B3LYP ma-def2-SVP OPT NumFreq
%basis

end 

%scf
  maxiter 200
end

%pal 
	nprocs 16
end
* xyz 0 1
N	1.0436	0.3200	1.7859
N	1.9422	-0.1621	-1.2071
N	0.9491	-0.9863	-0.6510
O	1.9763	-2.7608	-1.5648
O	0.7049	2.5135	-0.0479
H	1.4159	-0.5180	4.8359
C	6.5797	0.9354	2.6021
H	-8.4318	0.7638	-1.9799
C	7.4737	0.1495	1.9008
C	7.0465	-0.6399	0.8798
H	0.0638	1.9015	5.3589
H	-0.4629	1.9117	7.6163
H	-1.9818	0.4137	8.4443
H	-2.9944	-1.1135	7.0599
Zn	-0.1442	0.5534	0.1110
H	1.2476	2.7611	0.6508
H	-1.5794	-0.1440	-4.7793
H	-3.6601	0.1220	-3.5061
H	-4.8717	1.2271	1.6103
H	-3.5943	1.0692	3.6928
H	3.4849	-0.6913	3.5488
H	4.7345	1.2425	-1.3589
H	3.4732	1.3712	-3.4491
H	2.6435	-0.8681	-4.8116
H	3.2127	-0.6399	-7.0421
H	2.0056	0.7895	-8.4013
H	0.2760	2.0250	-7.5144
H	-0.2157	1.8791	-5.2814
H	-4.7620	2.3047	-2.4048
H	-7.0242	2.3116	-2.9398
H	-7.6124	-0.7909	-0.5218
C	0.9345	3.3909	-1.1344
H	-5.3473	-0.8458	0.0005
H	-2.4691	-1.1392	4.8063
H	4.6219	1.4279	2.7368
H	5.4076	-1.2181	-0.1476
H	-0.2157	-4.3858	-1.6988
H	-1.9101	-5.6436	-0.6863
H	-2.4295	-5.3055	1.4357
H	-1.3585	-3.7217	2.6216
H	0.2277	-2.3730	1.5972
C	0.8072	0.3451	-3.3565
C	-0.5551	0.3314	-2.9767
C	-1.6482	0.0774	-3.8788
C	-2.7968	0.2215	-3.1748
C	-2.4383	0.5561	-1.8284
C	-3.3573	0.7123	-0.7697
C	-3.0558	0.7827	0.5957
C	-3.9645	1.0366	1.6860
C	-1.1697	0.3880	4.8399
C	-3.2607	0.9508	2.8335
C	-0.5566	1.2957	5.6924
C	-1.9086	0.6437	2.4900
C	-0.8697	1.2992	7.0453
C	-0.8390	0.4086	3.3833
C	-1.7740	0.4051	7.5373
C	0.5028	0.1615	3.0343
C	-2.3798	-0.5060	6.7151
C	1.5227	-0.3173	3.9350
C	-2.0667	-0.5146	5.3657
C	2.6596	-0.4151	3.2224
C	2.3831	-0.0204	1.8760
C	3.3342	0.0671	0.8422
H	6.8782	1.4793	3.2953
C	3.0884	0.2215	-0.5383
H	8.3751	0.1615	2.1289
C	3.8800	0.9028	-1.4998
H	7.6566	-1.1581	0.4067
C	3.1776	0.9731	-2.6615
C	1.9222	0.3434	-2.4803
C	1.1437	0.4686	-4.8053
C	2.1709	-0.2744	-5.3484
C	2.5075	-0.1474	-6.6891
C	1.7919	0.7123	-7.4987
C	0.7662	1.4536	-6.9679
C	0.4618	1.3506	-5.6354
C	-4.8176	0.7466	-1.1299
C	-5.3282	1.6767	-2.0183
C	-6.6891	1.6818	-2.3409
C	-7.5261	0.7569	-1.7717
C	-7.0359	-0.1697	-0.9046
C	-5.6765	-0.1989	-0.5801
C	4.7799	0.1066	1.2307
C	5.2276	0.9045	2.2626
C	5.6973	-0.6708	0.5451
C	1.0925	-2.2597	-0.8737
C	0.0580	-3.1160	-0.2231
H	1.3486	4.1957	-0.8138
C	-0.4893	-4.1713	-0.8361
H	1.5139	2.9653	-1.7721
C	-1.4799	-4.9761	-0.2042
H	0.0989	3.6054	-1.5534
C	-1.7784	-4.7805	1.0280
C	-1.1638	-3.8384	1.7183
C	-0.2200	-3.0113	1.0915
N	-1.0699	0.6191	-1.7242
N	-1.8037	0.5822	1.1253
*