! UKS B3LYP ma-def2-SVP OPT NumFreq
%basis

end 

%scf
  maxiter 200
end

%pal 
	nprocs 16
end
* xyz 0 1
H	-0.5298	-0.3852	3.5231
C	5.3425	-2.1250	-5.0821
H	2.7670	-0.9494	0.2615
C	5.6200	-1.5232	-3.8742
H	0.4391	0.4736	4.4672
C	4.5764	-1.2038	-3.0182
C	7.5862	-1.8245	-5.7989
H	-0.1614	1.1230	3.1340
C	-0.5642	3.1279	-0.0972
C	-2.1036	2.1261	1.1128
C	-2.7197	-0.2425	1.5797
C	-1.9685	-2.2116	0.9442
C	-0.1582	-2.9873	-0.5885
C	1.3740	-2.0005	-1.8198
H	-8.6184	1.8965	4.6818
C	1.9888	0.3785	-2.2879
H	-8.7865	3.0072	5.8201
C	1.2459	2.3472	-1.6204
H	-8.2798	3.4260	4.3604
C	-1.4003	4.1637	0.4740
C	4.7413	-1.4543	2.0006
C	-2.3446	3.5491	1.2212
C	-3.5154	-1.2372	2.2517
C	-3.0527	-2.4465	1.8552
C	0.6071	-4.0306	-1.2318
C	1.5545	-3.4248	-1.9831
C	2.7484	1.3816	-2.9919
C	2.3008	2.5910	-2.5646
C	-2.8890	1.1435	1.7234
C	-4.6699	2.1275	4.8998
C	-1.2143	-3.2066	0.3084
C	2.1567	-1.0150	-2.4430
C	0.4966	3.3553	-0.9740
C	-3.9774	1.5814	2.6511
C	-3.6817	1.8174	3.9899
C	-5.9926	2.2095	4.4820
C	-6.3112	1.9948	3.1520
O	6.2936	-2.4146	-6.0225
C	-5.2978	1.6875	2.2448
C	-1.5553	-4.6331	0.6200
C	-2.5614	-5.3091	-0.0574
C	-2.8576	-6.6246	0.2441
C	-2.1475	-7.2998	1.2278
C	-1.1413	-6.6501	1.9051
C	-0.8688	-5.3173	1.5937
C	-1.9263	-9.2703	2.5534
C	3.2541	-1.4607	-3.3508
C	2.9959	-2.1080	-4.5596
C	0.8778	4.7726	-1.2680
C	0.6673	5.3464	-2.5239
C	1.1090	6.6235	-2.8126
C	1.7871	7.3577	-1.8478
C	1.9673	6.8297	-0.5833
C	1.4979	5.5494	-0.3025
C	3.0255	9.3005	-1.2898
C	2.5999	-0.5892	3.2495
C	0.1749	0.2976	3.5392
C	3.3374	-0.9561	2.1497
H	6.5167	-1.3291	-3.6296
H	4.7722	-0.7968	-2.1822
C	1.3508	-0.1889	2.7721
H	8.0152	-2.2588	-5.0307
H	8.1445	-1.9465	-6.5959
H	7.4821	-0.8678	-5.6174
N	-1.0114	1.8965	0.3185
O	-6.9040	2.5158	5.4539
N	-1.7790	-0.8575	0.7907
N	0.3265	-1.7609	-0.9647
N	1.0771	0.9931	-1.4560
N	1.3013	-0.2993	1.4476
N	2.5307	-0.7776	1.0911
O	-2.5357	-8.5947	1.4581
O	2.2557	8.5805	-2.2469
C	-8.2521	2.7280	5.0474
H	5.1005	-1.6839	2.8824
Fe	-0.1563	0.0536	-0.0808
H	-1.3031	5.1009	0.3477
H	-3.0338	3.9689	1.7213
H	5.2950	-0.7542	1.5958
H	-4.2292	-1.0771	2.8575
H	-2.7799	1.7617	4.2832
H	-3.3838	-3.2950	2.1288
H	4.7471	-2.2481	1.4272
H	-4.4477	2.2833	5.8102
H	0.4700	-4.9663	-1.1431
H	2.2133	-3.8556	-2.5170
H	3.4327	1.2259	-3.6330
H	2.6251	3.4401	-2.8391
H	-7.2125	2.0562	2.8594
H	-5.5172	1.5488	1.3311
H	-3.0532	-4.8634	-0.7358
H	-3.5520	-7.0706	-0.2255
H	-0.6396	-7.1025	2.5738
H	-0.1832	-4.8670	2.0727
H	-2.0969	-8.7703	3.3799
H	-2.3028	-10.1720	2.6312
H	-0.9599	-9.3310	2.4017
H	2.1001	-2.3191	-4.7958
H	3.8399	-2.8940	-6.2381
H	0.2115	4.8489	-3.1930
H	0.9493	6.9993	-3.6708
H	2.4078	7.3364	0.0893
H	1.6059	5.2002	0.5734
H	3.7805	8.7487	-0.9954
H	3.3641	10.1256	-1.6967
H	2.4638	9.5223	-0.5187
H	2.8836	-0.6052	4.1561
C	4.0269	-2.4462	-5.4210
*