! UKS B3LYP ma-def2-SVP OPT NumFreq
%basis

end 

%scf
  maxiter 200
end

%pal 
	nprocs 16
end
* xyz 0 1
C	2.4970	-4.9965	-0.7026
H	4.7083	1.6776	-2.2248
C	-3.7879	-1.7380	2.6006
H	6.3138	2.4986	-3.6606
C	-5.1223	-1.5873	2.2733
C	-6.1145	-2.0022	3.1534
H	5.7645	3.0727	-5.8038
C	-5.7880	-2.5766	4.3441
C	-3.4634	-2.3556	3.8027
C	-1.7838	4.6157	0.4888
C	-2.6729	7.1961	1.0253
C	-2.4658	5.2982	-0.4364
C	-2.8789	6.5636	-0.1573
C	-1.9546	6.4803	1.9686
C	-1.4674	5.1778	1.7208
C	2.3426	0.4745	2.0299
C	3.2380	1.2325	1.1156
N	0.3378	1.8687	-1.0227
N	1.2088	-0.8419	-1.5575
H	-7.0087	-1.8874	2.9268
N	-0.8248	-1.8725	0.2426
N	-1.7245	0.8316	0.7278
N	1.1802	0.0161	1.6129
N	0.6386	-0.5814	2.7083
H	4.0620	1.4338	1.5671
H	-4.2424	-3.1775	5.4748
C	4.4751	1.9014	-3.0973
C	5.4386	2.3962	-3.9570
C	5.1138	2.7320	-5.2327
H	3.2685	0.3813	3.8982
H	0.0324	-1.0694	5.1699
H	1.3730	-0.5879	5.8236
H	1.2913	-2.0016	5.1554
Fe	-0.0356	0.0212	-0.1626
H	0.1479	5.0327	-1.4068
H	1.8984	4.0234	-2.7885
H	3.4876	-0.9552	-3.7853
H	2.7943	-3.1837	-3.0299
H	-0.8570	-5.0603	0.3457
H	-2.6445	-4.0541	1.6906
H	-4.1639	0.9492	2.7751
H	-3.4282	3.1715	2.0468
H	3.6260	2.7950	-6.5473
H	1.9976	1.9770	-5.1251
H	-0.1780	-5.2857	-2.4731
H	0.7049	-7.3845	-2.8307
H	2.6799	-8.0018	-1.8450
H	3.8015	-6.5110	-0.5109
H	2.9655	-4.3967	-0.1674
H	-5.3574	-1.2052	1.4584
H	-6.4561	-2.8380	4.9352
H	-2.5715	-2.4923	4.0268
H	-2.9911	8.0545	1.1903
H	-2.6565	4.9092	-1.2603
H	-3.3334	7.0266	-0.8230
H	-1.7878	6.8692	2.7967
H	-0.9595	4.7179	2.3507
H	-0.1267	-0.9737	2.7058
H	3.4211	0.7023	0.3359
H	2.8096	2.0511	0.8539
C	-4.4659	-2.7686	4.6693
C	-0.2612	3.0632	-0.6990
C	1.3113	2.1505	-1.9535
C	2.0584	-0.1768	-2.4124
C	1.4441	-2.1852	-1.7259
C	-0.2844	-3.0701	-0.1567
C	-1.8767	-2.1695	1.0695
C	-2.6294	0.1671	1.5239
C	-1.9768	2.1736	0.8676
C	1.4166	-0.4962	3.7870
C	0.3671	4.1283	-1.4454
C	2.5273	0.1695	3.3782
C	1.3288	3.5743	-2.2075
C	2.8400	-1.1438	-3.1435
C	2.4605	-2.3701	-2.7268
C	0.9894	-1.0929	5.1032
C	-1.0249	-4.1517	0.4486
C	-2.0052	-3.5979	1.1919
C	-3.4706	1.1338	2.1828
C	-3.0660	2.3573	1.7803
C	2.1349	1.2103	-2.5799
C	0.7902	-3.2254	-1.0444
C	-2.7126	-1.2191	1.6922
C	-1.3097	3.2197	0.2069
C	3.1791	1.7372	-3.5165
C	3.8451	2.5733	-5.6714
C	2.8692	2.0798	-4.8179
C	1.3041	-4.6097	-1.2780
C	0.6297	-5.5233	-2.0777
C	1.1572	-6.7823	-2.2866
C	2.3344	-7.1515	-1.7031
C	3.0003	-6.2616	-0.9123
*