! UKS B3LYP ma-def2-SVP OPT NumFreq
%basis

end 

%scf
  maxiter 200
end

%pal 
	nprocs 16
end
* xyz 0 1
Fe	-0.0000	-0.0057	-0.0000
H	1.5310	0.2767	1.7238
H	-1.5310	0.2767	-1.7238
H	5.8255	-4.3686	1.8434
H	0.7152	-0.6729	2.1857
H	-0.7152	-0.6729	-2.1857
H	1.9828	4.3918	-5.7719
H	3.7772	5.7418	-5.1567
H	4.7191	5.5660	-3.0251
H	-4.7191	5.5660	3.0251
H	-5.8255	-4.3686	-1.8434
H	6.2485	-5.8296	0.0952
H	-6.2485	-5.8296	-0.0952
H	5.0656	-5.7051	-1.8859
H	-5.0656	-5.7051	1.8859
C	0.7232	2.7468	-0.8534
C	-0.7232	2.7468	0.8534
C	0.3927	4.1239	-0.5388
C	-0.3927	4.1239	0.5388
C	1.7322	2.3140	-1.7356
C	-1.7322	2.3140	1.7356
C	2.2430	1.0180	-1.6686
C	-2.2430	1.0180	1.6686
C	3.5186	0.5797	-2.1826
C	-3.5186	0.5797	2.1826
C	3.8219	-0.6134	-1.6386
C	-3.8219	-0.6134	1.6386
C	2.6517	-1.0436	-0.8660
C	-2.6517	-1.0436	0.8660
C	2.4107	-2.3179	-0.3467
C	-2.4107	-2.3179	0.3467
C	1.1207	-2.7534	-0.0503
C	-1.1207	-2.7534	0.0503
C	-2.3548	4.3269	4.9009
C	3.4452	4.1266	-2.3418
C	-3.4452	4.1266	2.3418
C	0.6721	-4.1224	0.0300
C	-0.6721	-4.1224	-0.0300
C	2.3500	3.2934	-2.6817
C	-2.3500	3.2934	2.6817
C	1.8327	3.4340	-3.9761
C	-1.8327	3.4340	3.9761
C	2.3548	4.3269	-4.9009
C	3.4196	5.1196	-4.5335
C	-3.4196	5.1196	4.5335
C	3.9784	5.0222	-3.2629
C	-3.9784	5.0222	3.2629
C	3.5473	-3.2999	-0.2582
C	-3.5473	-3.2999	0.2582
C	4.2961	-3.3838	0.9170
C	-4.2961	-3.3838	-0.9170
C	5.3130	-4.3199	1.0448
C	-5.3130	-4.3199	-1.0448
C	5.5668	-5.1749	0.0005
C	-5.5668	-5.1749	-0.0005
C	4.8660	-5.1099	-1.1723
C	-4.8660	-5.1099	1.1723
C	3.8650	-4.1657	-1.3079
C	-3.8650	-4.1657	1.3079
N	-0.0000	1.9433	-0.0000
N	1.7194	-0.0074	-0.8981
N	-1.7194	-0.0074	0.8981
N	-0.0000	-1.9580	-0.0000
Cl	-0.4848	2.4392	4.4624
N	0.8541	5.3604	-1.1673
N	-0.8541	5.3604	1.1673
N	4.4174	1.2453	-3.1172
N	-4.4174	1.2453	3.1172
Cl	3.9632	-2.2621	2.1965
N	5.1166	-1.2762	-1.8149
N	-5.1166	-1.2762	1.8149
N	1.4624	-5.3642	0.1502
N	-1.4624	-5.3642	-0.1502
Cl	0.4848	2.4392	-4.4624
Cl	4.1364	4.0084	-0.7578
Cl	-4.1364	4.0084	0.7578
Cl	-3.9632	-2.2621	-2.1965
Cl	2.9973	-4.0689	-2.8075
Cl	-2.9973	-4.0689	2.8075
O	0.5125	5.5957	-2.3099
O	-0.5125	5.5957	2.3099
O	1.4911	6.1233	-0.4237
O	-1.4911	6.1233	0.4237
O	4.0295	1.4157	-4.2711
O	-4.0295	1.4157	4.2711
O	5.5541	1.5321	-2.6955
O	-5.5541	1.5321	2.6955
O	5.7919	-1.4467	-0.7934
O	-5.7919	-1.4467	0.7934
O	5.4136	-1.5549	-2.9563
O	-5.4136	-1.5549	2.9563
O	2.1361	-5.4995	1.1709
O	-2.1361	-5.4995	-1.1709
O	1.3219	-6.1921	-0.7317
O	-1.3219	-6.1921	0.7317
O	0.8445	0.0089	1.7860
O	-0.8445	0.0089	-1.7860
H	-1.9828	4.3918	5.7719
H	-3.7772	5.7418	5.1567
*