! UKS B3LYP ma-def2-SVP OPT NumFreq
%basis

end 

%scf
  maxiter 200
end

%pal 
	nprocs 16
end
* xyz 0 1
C	-2.9835	3.1444	0.0227
C	-3.8941	3.1188	1.0366
C	-5.0712	3.8104	0.9489
C	-5.3432	4.5319	-0.1282
C	-4.4792	4.5864	-1.1532
C	-3.2926	3.8893	-1.0714
H	4.2005	4.1383	4.9730
H	2.8813	5.9584	5.2869
H	0.8081	5.9806	4.3339
H	1.4131	-2.0690	-0.1503
H	2.0579	-1.1829	-0.8619
H	0.5378	0.7095	-5.1318
C	3.0089	3.1299	3.7595
C	3.4064	4.1717	4.5728
C	2.5984	5.2446	4.7637
C	1.3708	5.2713	4.1838
H	3.4053	2.3450	-4.1564
Fe	0.0563	-0.0847	-0.1273
H	-1.9560	0.9518	-0.8791
H	-2.1548	0.6972	0.3205
H	-2.5539	-4.1815	1.3341
H	-2.5895	-4.3038	-1.0805
H	-0.5771	-1.4353	-4.9872
H	-1.0487	2.8686	-0.4745
H	-0.5184	-0.8260	4.8455
H	-0.2977	-4.4416	-3.6105
H	-1.2744	-5.9826	-4.9839
H	-3.4566	-5.7158	-5.5685
H	2.3527	-1.0895	1.7050
H	-4.6423	-3.8613	-4.9398
H	3.3520	-0.5547	0.6254
H	4.6944	-2.2580	-0.6063
H	-3.6594	-2.2914	-3.5470
H	5.8143	-4.1692	-0.4657
H	5.3615	-5.6380	1.1195
H	3.7836	-5.2488	2.6497
H	2.6065	-3.3131	2.5273
C	0.5383	0.7184	-3.0229
C	1.5526	2.2349	-1.3782
C	1.6377	2.3172	0.8112
C	0.6379	1.0163	2.6346
H	-3.5988	-2.5582	3.4378
H	-4.1160	-3.8568	5.2524
H	-0.3225	-4.9375	5.8454
H	0.2623	-3.5611	4.0147
C	0.3004	0.2714	-4.3593
H	-1.3380	2.5484	1.0266
H	-3.7172	2.6340	1.7780
C	0.4089	0.7550	4.0215
C	1.2160	1.8902	-2.6753
C	1.3610	2.0970	2.1580
C	-1.4657	-2.4059	1.1207
C	-1.4948	-2.5148	-1.0758
C	1.5237	2.8575	-3.7722
C	-0.5435	-1.1862	-2.8975
C	-0.4704	-0.8604	2.7554
C	-2.1805	-3.5844	0.7599
C	-2.1982	-3.6534	-0.5786
C	-0.3321	-0.9038	-4.2788
H	2.6922	4.0461	-1.6357
C	-0.2551	-0.4068	4.0913
H	2.7752	4.0905	0.8106
C	-1.2601	-2.2758	-2.4165
C	-1.1765	-2.0179	2.4241
C	-1.8596	-3.2231	-3.4052
C	-1.1556	-4.3271	-3.8588
C	-1.7556	-5.2533	-4.6872
H	-0.2252	3.7459	-3.7679
C	-3.0637	-5.0987	-5.0657
C	-3.7628	-3.9880	-4.6582
H	0.1747	5.2246	-5.3949
C	-3.1611	-3.0630	-3.8317
H	2.1470	5.3469	-6.5288
C	2.7417	-1.2785	0.8371
H	3.6738	3.8848	-5.7618
C	3.5260	-2.5649	0.9282
C	4.5079	-2.8417	0.0259
C	5.2141	-4.0080	0.0849
C	4.9300	-4.9042	1.0722
C	3.9707	-4.6340	1.9697
C	3.2689	-3.4821	1.9046
H	0.1839	4.2551	2.9990
N	1.1799	1.5489	-0.2366
N	1.6963	-1.3007	-0.1418
C	-1.6058	-2.9006	3.5503
C	-2.9320	-3.0141	3.9238
C	-3.2818	-3.8023	5.0100
C	-2.3246	-4.4928	5.6992
C	-1.0334	-4.4105	5.3338
C	-0.6701	-3.6167	4.2661
C	-1.6732	2.4306	0.1242
H	0.6504	1.2665	4.7041
N	-1.0532	-1.7366	-0.0245
N	0.0205	-0.1967	-2.1187
N	0.0807	0.0246	1.8631
N	-1.6556	1.0330	-0.1705
H	3.5751	2.4006	3.6379
C	2.3028	3.4090	-1.0239
C	2.3575	3.4523	0.3113
H	-5.7052	3.7725	1.6756
H	-6.1492	5.0134	-0.1768
H	-4.6973	5.1357	-1.9888
H	-2.7432	3.9260	-1.7225
C	0.5781	3.7525	-4.1731
C	0.8111	4.6598	-5.1663
C	1.9895	4.7076	-5.7986
C	2.9432	3.8548	-5.4011
C	2.7246	2.9287	-4.4028
C	1.7938	3.1544	3.1235
C	0.9676	4.2295	3.3630
H	-2.5802	-5.0487	6.4575
*