! UKS B3LYP ma-def2-SVP OPT NumFreq
%basis

end 

%scf
  maxiter 200
end

%pal 
	nprocs 16
end
* xyz 0 1
C	1.5644	3.0445	6.3015
H	-2.7851	-4.3828	-0.0955
C	2.9936	1.3736	4.6289
H	-2.6537	-3.5700	-2.4834
C	3.4094	2.9784	7.9400
H	-0.1491	-2.9702	-4.8012
N	1.0071	1.6980	0.5331
H	-4.4317	-1.4344	-6.0979
H	-1.0450	-3.5809	-6.8858
H	-3.4928	-0.8137	-4.0673
N	3.9148	3.2629	8.9228
C	-1.5151	-2.6685	0.3017
C	-2.2860	-3.6099	-0.4793
C	-2.2405	-3.1931	-1.7588
C	-1.4368	-2.0034	-1.8042
C	-1.1373	-1.2767	-2.9687
C	-0.3816	-0.1051	-3.0408
C	-1.7224	-1.7823	-4.2546
C	-1.0223	-2.6304	-5.0916
C	-3.5458	-1.7732	-5.8333
C	-2.8268	-2.5905	-6.6737
H	-0.4928	0.3842	-5.1126
C	-1.5644	-3.0445	-6.3015
H	0.8100	2.4256	-4.4551
C	-2.9936	-1.3736	-4.6289
H	0.8997	5.2943	-1.3711
C	-3.4094	-2.9784	-7.9400
H	1.7628	7.0748	-2.5248
H	4.0083	4.6737	-4.7717
H	3.1718	2.8977	-3.6472
N	-1.0071	-1.6980	-0.5331
N	-3.9148	-3.2629	-8.9228
C	0.7531	1.6971	-2.4712
C	1.3799	2.6911	-1.7024
H	0.4928	-0.3842	5.1126
H	-0.8100	-2.4256	4.4551
H	-0.8997	-5.2943	1.3711
H	-1.7628	-7.0748	2.5248
C	-0.1428	0.6379	-4.2412
H	-4.0083	-4.6737	4.7717
H	-3.1718	-2.8977	3.6472
C	0.5497	1.7370	-3.9024
C	1.9422	3.8745	-2.4184
C	1.5442	5.1729	-2.0955
C	2.0901	6.2684	-2.7486
C	3.0113	6.0763	-3.7655
C	3.3980	4.7933	-4.1060
C	2.8748	3.7114	-3.4409
C	3.5938	7.2098	-4.4417
C	-0.7531	-1.6971	2.4712
C	-1.3799	-2.6911	1.7024
C	0.1428	-0.6379	4.2412
C	-0.5497	-1.7370	3.9024
C	-1.9422	-3.8745	2.4184
C	-1.5442	-5.1729	2.0955
N	0.1858	0.5455	-1.9681
C	-2.0901	-6.2684	2.7486
N	4.0753	8.1033	-4.9579
C	-3.0113	-6.0763	3.7655
C	-3.3980	-4.7933	4.1060
C	-2.8748	-3.7114	3.4409
C	-3.5938	-7.2098	4.4417
Zn	0.0000	0.0000	0.0000
H	2.7851	4.3828	0.0955
H	2.6537	3.5700	2.4834
H	0.1491	2.9702	4.8012
H	4.4317	1.4344	6.0979
H	1.0450	3.5809	6.8858
H	3.4928	0.8137	4.0673
N	-0.1858	-0.5455	1.9681
N	-4.0753	-8.1033	4.9579
C	1.5151	2.6685	-0.3017
C	2.2860	3.6099	0.4793
C	2.2405	3.1931	1.7588
C	1.4368	2.0034	1.8042
C	1.1373	1.2767	2.9687
C	0.3816	0.1051	3.0408
C	1.7224	1.7823	4.2546
C	1.0223	2.6304	5.0916
C	3.5458	1.7732	5.8333
C	2.8268	2.5905	6.6737
*