! UKS B3LYP ma-def2-SVP OPT NumFreq
%basis
NewGTO Ru "ma-def2-TZVP" end
end 

%scf
  maxiter 200
end

%pal 
	nprocs 16
end
* xyz 0 1
Fe	0.6849	-2.2707	0.1221
Co	-1.1749	4.1870	0.7987
P	0.7706	3.2467	0.6427
P	-1.4400	3.8941	-1.3153
P	-2.2002	2.3112	1.1671
H	-3.5805	5.3251	1.4042
H	-2.2031	4.5810	3.3209
H	0.1207	5.2547	2.9496
H	2.8323	-7.6931	0.7877
H	0.2558	6.4638	0.7269
H	-2.1124	6.5395	-0.2132
H	0.5052	-7.3065	0.8504
H	-0.2864	-5.1580	0.6530
H	3.4007	-3.7311	0.3360
H	0.5986	2.4419	3.4638
H	1.6028	1.4600	2.6835
H	2.5564	1.9875	4.7735
H	3.4536	2.6598	3.6322
H	4.2799	-5.8317	0.6554
H	2.4201	3.5527	4.4661
H	3.5824	3.6643	0.2664
H	3.0077	2.7249	-0.9013
H	3.5988	5.4712	-1.3178
H	4.6382	4.3060	-1.6695
H	3.2476	4.4030	-2.4555
H	0.8339	4.0376	-2.9953
H	-0.3190	4.4243	-4.0468
H	1.3330	6.3641	-2.7746
H	1.6026	5.8287	-4.2587
H	0.2771	6.6657	-3.9378
H	-2.8400	4.4854	-3.6452
H	-3.4059	3.0265	-3.2834
H	-5.4251	3.9459	-2.5825
H	-4.8617	5.4261	-2.8112
H	-5.1282	4.4681	-4.0653
H	-4.1143	2.0207	-0.8294
H	-4.7295	0.9445	0.1934
H	-6.3563	2.5482	0.8716
H	-5.7608	3.5872	-0.1922
H	-6.4819	2.2492	-0.6959
H	-3.1954	0.3293	2.5557
H	-1.7091	-0.0161	3.0495
H	-2.1630	0.9206	5.1367
H	-3.6250	1.3497	4.6465
H	-3.2608	-0.1995	4.8166
H	-3.0504	-2.8475	3.5786
H	-1.0558	-2.3625	4.9497
H	3.7277	-0.4546	3.8061
H	2.6749	-2.7890	-4.5488
C	1.5572	-0.3297	6.9633
H	-2.2374	-4.4817	-3.4228
C	2.3456	-1.2757	7.5918
H	-3.7596	-4.1629	-1.5093
C	2.7524	-2.4064	6.9042
H	-3.7281	-5.0398	2.3026
H	-4.7454	-1.9161	-0.0829
H	-5.9913	-5.5088	2.6526
H	-6.9982	-2.3918	0.2664
H	-7.6351	-4.1974	1.6114
H	0.6233	0.1300	5.1994
H	4.8757	0.1606	1.7002
H	4.3528	-1.4378	-3.3242
H	2.6736	-3.3497	5.0950
H	4.1253	1.1305	-2.2230
H	-0.1273	-4.8524	-8.0889
H	1.5595	-5.7865	-6.7706
H	1.7425	-5.2152	-4.5189
H	-1.4050	-2.6894	-4.9134
H	-1.6280	-3.3165	-7.1437
H	6.0949	2.1948	-2.8953
H	8.1586	1.4560	-2.0847
H	8.2567	-0.3470	-0.5853
H	6.2893	-1.4205	0.0728
Ru	-0.4012	0.7133	-1.0356
C	-2.6473	5.4712	1.5032
C	-1.8812	5.0554	2.5626
C	-0.6063	5.4234	2.3605
C	2.4849	-6.8109	0.7336
C	-0.5252	6.1024	1.1272
C	1.1131	-6.5824	0.7560
C	-1.8395	6.1356	0.6009
C	0.6521	-5.3015	0.6429
C	2.8097	-4.4618	0.4729
C	1.4940	2.3741	3.0469
C	2.5772	2.6691	4.0713
C	3.0481	3.6563	-0.5666
C	3.6880	4.5345	-1.5909
C	3.3383	-5.7121	0.6238
C	0.1915	4.7418	-3.2613
C	0.9127	6.0094	-3.5863
C	-3.4333	3.9831	-3.0321
C	-4.8327	4.5000	-3.1311
C	-4.5870	1.9104	0.0332
C	-5.9130	2.6385	0.0015
C	-2.4522	0.6323	3.1371
C	-2.9155	0.6801	4.5568
C	-1.7477	-2.7532	1.8898
C	-2.1684	-2.7053	3.2578
C	-1.0900	-2.4223	4.0018
C	0.0167	-2.2257	3.0824
C	1.2710	-1.7859	3.4639
C	2.2567	-1.3873	2.5616
C	3.4419	-0.6672	2.9251
C	4.0781	-0.3483	1.7778
C	3.3287	-0.9196	0.6976
C	3.7385	-0.9488	-0.6303
C	3.0546	-1.6358	-1.6275
C	3.5419	-1.7859	-2.9719
C	2.6211	-2.5167	-3.6400
C	1.5542	-2.8076	-2.7384
C	0.3546	-3.4294	-3.0648
C	-0.7385	-3.5517	-2.2126
C	-2.0157	-4.0885	-2.5874
C	-2.8389	-3.9290	-1.5407
C	-2.0736	-3.3418	-0.4742
C	-2.5571	-3.1425	0.8184
C	-4.0063	-3.4308	1.0711
C	-5.7375	-4.7834	2.0945
C	-4.9937	-2.6469	0.4698
C	-6.3335	-2.9312	0.6760
C	-6.7147	-4.0008	1.4818
C	-4.3904	-4.5017	1.8873
C	1.5975	-1.6265	4.9248
C	1.1757	-0.5144	5.6252
C	2.3837	-2.5778	5.5667
C	0.1968	-3.8692	-4.4835
C	0.9515	-5.1634	-6.3904
C	1.0682	-4.8139	-5.0549
C	-0.8029	-3.3232	-5.2849
C	-0.9346	-3.6912	-6.6135
C	-0.0478	-4.6080	-7.1737
C	5.0026	-0.2500	-1.0114
C	4.9621	0.8262	-1.8907
C	6.1344	1.4613	-2.2908
C	7.3593	1.0229	-1.8091
N	-0.4129	-2.4396	1.7965
C	7.4184	-0.0507	-0.9202
N	2.2000	-1.5281	1.1972
C	6.2474	-0.6858	-0.5280
N	1.8570	-2.2961	-1.4845
N	-0.7812	-3.1478	-0.8999
N	1.4677	-4.2187	0.5123
N	0.1157	-0.7602	-0.3526
Cl	-1.9312	-0.2884	-2.4905
Cl	1.2097	0.7614	-2.7126
O	1.6335	3.3520	1.9971
O	1.6953	4.1452	-0.2936
O	-0.7175	5.0473	-2.1534
O	-2.9877	4.1573	-1.6353
O	-3.8053	2.4884	1.1124
O	-2.0014	1.9560	2.7094
O	0.8565	1.7923	0.2257
O	-1.0002	2.5677	-1.8802
O	-1.9077	1.0651	0.3344
H	1.2753	0.4436	7.4363
H	2.6078	-1.1495	8.4952
H	3.2789	-3.0654	7.3414
*