! UKS B3LYP ma-def2-SVP OPT NumFreq
%basis

end 

%scf
  maxiter 200
end

%pal 
	nprocs 16
end
* xyz 0 1
C	-3.2086	2.5398	-2.3829
C	-2.7590	1.4711	3.3876
C	-0.5592	0.6821	-5.6958
C	-3.6562	1.8151	2.4346
C	2.9661	-3.0514	-0.1562
C	-3.0888	1.4424	1.1870
C	2.6311	-4.2699	-0.7493
H	-4.0008	3.0450	-2.5208
C	3.5264	-5.3220	-0.7765
N	-4.8475	2.4228	-0.0532
H	-2.8407	1.6284	4.3199
H	1.2818	1.2290	4.9037
H	-4.5016	2.2254	2.5730
H	1.4224	1.5029	7.2211
H	1.7728	-4.3767	-1.1415
H	-0.3039	0.7460	8.5892
H	-5.1940	2.6932	-0.8162
H	-2.1598	-0.2751	7.6534
H	-2.3172	-0.5698	5.3449
C	1.2339	-1.4539	3.3600
C	-1.6708	0.8303	2.7341
C	-0.5320	0.3155	4.8803
H	5.4101	-5.8961	-0.2480
Ni	-0.6063	0.2636	-0.0075
C	0.5732	0.9206	5.4579
H	-5.3016	2.5164	0.6946
C	-2.2123	2.3386	-3.2788
N	-1.6092	1.2435	-1.3396
C	0.4391	1.9815	-7.4320
C	-1.2348	1.5266	-2.6422
N	0.6425	-0.3143	-1.3703
C	0.6606	1.0836	6.8378
C	-0.3603	0.6357	7.6480
C	-0.0843	1.0545	-3.2784
C	0.3231	-0.5599	2.7203
C	-1.4570	0.0311	7.0923
H	-2.1741	2.6761	-4.1652
C	0.7856	0.1866	-2.6705
C	-1.5555	-0.1416	5.7164
C	4.7947	-5.1733	-0.2301
H	6.0255	-3.8500	0.7079
N	-1.8586	0.8405	1.3621
C	1.9192	-0.4124	-3.3073
H	2.2425	-0.2180	-4.1786
C	5.1555	-3.9603	0.3412
C	2.4433	-1.3019	-2.4450
H	3.1915	-1.8667	-2.6010
C	4.2519	-2.9120	0.3782
C	1.6536	-1.2352	-1.2389
H	4.5084	-2.0873	0.7726
N	0.4319	-0.6687	1.3392
C	-0.6142	0.2024	3.3952
C	1.9613	-1.9481	-0.0882
H	1.3868	2.9594	-4.4883
H	2.5139	-2.8251	2.5240
H	1.6789	3.4215	-6.7633
H	1.3615	-1.5510	4.2954
H	0.5531	2.1760	-8.3543
C	-3.6083	1.8594	-0.0307
C	0.1093	1.4061	-4.7270
C	1.4120	-1.6113	1.1429
H	-0.8494	0.4513	-7.6970
C	0.9314	2.4359	-5.1361
C	1.8752	-2.1320	2.3981
H	-1.1435	-0.0203	-5.4353
C	1.1011	2.7164	-6.4935
H	3.2737	-6.1490	-1.1705
C	-2.8400	1.8499	-1.2010
C	-0.3895	0.9647	-7.0439
*