! UKS B3LYP ma-def2-SVP OPT NumFreq
%basis

end 

%scf
  maxiter 200
end

%pal 
	nprocs 16
end
* xyz 0 1
H	-3.8721	2.3125	-1.8272
C	-1.4309	1.9145	1.9083
C	-2.1546	3.1572	1.9273
C	-2.1324	3.6503	0.6822
C	-1.4377	2.7151	-0.1447
H	5.8811	0.0336	-3.8798
C	-1.2145	2.8451	-1.5200
C	-0.5672	1.9180	-2.3283
H	-0.0857	5.1309	-2.2927
C	-0.3634	2.0364	-3.7467
C	-1.1955	1.1046	3.0264
C	-1.7314	1.5757	4.3629
C	-0.9438	2.2847	5.2640
C	-1.4062	2.6954	6.5252
C	-2.7096	2.4181	6.8898
C	-4.7855	1.4980	6.4524
C	-5.6316	0.8389	5.6873
C	-5.2544	0.4096	4.4052
C	-4.0235	0.6138	3.9082
H	0.8413	-3.1479	-7.1079
C	-3.0560	1.2903	4.7099
H	3.1054	-2.3380	-8.8898
C	-3.4783	1.7289	5.9793
C	0.3018	0.9596	-4.1548
C	-1.7615	4.0808	-2.2145
C	0.5264	0.1230	-3.0133
C	-0.9744	5.1379	-2.5653
H	3.5891	-3.6852	-8.2253
C	-1.4300	6.2425	-3.3176
H	5.6045	-2.7627	-7.8496
C	-2.7662	6.2553	-3.7208
H	5.1074	-1.4040	-8.4798
C	-3.5874	7.2137	-4.5232
C	-4.9419	6.5674	-4.7151
C	-4.8080	5.3398	-3.8561
C	-5.6655	4.4115	-3.5573
C	-5.3344	3.2999	-2.7978
C	-4.0812	3.0772	-2.3131
C	-3.0896	4.0982	-2.5968
C	-3.5453	5.1901	-3.3687
N	-1.0138	1.6488	0.6420
H	-0.8413	3.1479	7.1079
H	-3.1054	2.3380	8.8898
H	-3.5891	3.6852	8.2253
H	-5.6045	2.7627	7.8496
H	-5.1074	1.4040	8.4798
N	-0.0061	0.7252	-1.9016
C	3.5119	-2.7267	-8.0993
C	4.9064	-2.0897	-7.8250
H	-0.5732	-0.7821	5.0262
H	0.0716	-2.4970	-5.0204
H	-5.8811	-0.0336	3.8798
H	0.0857	-5.1309	2.2927
H	2.5620	-3.5471	-2.6667
C	-3.5119	2.7267	8.0993
H	2.5036	-4.4568	-0.4040
C	-4.9064	2.0897	7.8250
H	0.6466	-2.7407	4.2843
H	6.4881	-0.6567	-5.9993
H	3.8050	-0.3179	-3.0548
H	0.8565	-6.9410	3.5389
C	-0.3018	-0.9596	4.1548
H	3.6791	-8.0572	4.0532
C	-0.5264	-0.1230	3.0133
H	3.1679	-7.3819	5.3813
H	5.0965	-6.3353	5.6445
H	5.6581	-7.1429	4.4047
H	6.5381	-4.4951	3.8672
H	5.9991	-2.6768	2.6085
H	3.8721	-2.3125	1.8272
C	1.4309	-1.9145	-1.9083
C	2.1546	-3.1572	-1.9273
C	2.1324	-3.6503	-0.6822
C	1.4377	-2.7151	0.1447
C	1.2145	-2.8451	1.5200
C	0.5672	-1.9180	2.3283
C	0.3634	-2.0364	3.7467
C	1.1955	-1.1046	-3.0264
C	1.7314	-1.5757	-4.3629
C	0.9438	-2.2847	-5.2640
C	1.4062	-2.6954	-6.5252
C	2.7096	-2.4181	-6.8898
C	4.7855	-1.4980	-6.4524
C	5.6316	-0.8389	-5.6873
C	5.2544	-0.4096	-4.4052
C	4.0235	-0.6138	-3.9082
C	3.0560	-1.2903	-4.7099
N	0.0061	-0.7252	1.9016
C	3.4783	-1.7289	-5.9793
C	1.7615	-4.0808	2.2145
C	0.9744	-5.1379	2.5653
C	1.4300	-6.2425	3.3176
C	2.7662	-6.2553	3.7208
C	3.5874	-7.2137	4.5232
C	4.9419	-6.5674	4.7151
C	4.8080	-5.3398	3.8561
C	5.6655	-4.4115	3.5573
C	5.3344	-3.2999	2.7978
C	4.0812	-3.0772	2.3131
C	3.0896	-4.0982	2.5968
C	3.5453	-5.1901	3.3687
N	1.0138	-1.6488	-0.6420
H	-2.5620	3.5471	2.6667
H	-2.5036	4.4568	0.4040
H	-0.6466	2.7407	-4.2843
H	-6.4881	0.6567	5.9993
H	-3.8050	0.3179	3.0548
Zn	0.0000	0.0000	0.0000
H	-0.8565	6.9410	-3.5389
H	-3.6791	8.0572	-4.0532
H	-3.1679	7.3819	-5.3813
H	-5.0965	6.3353	-5.6445
H	0.5732	0.7821	-5.0262
H	-5.6581	7.1429	-4.4047
H	-0.0716	2.4970	5.0204
H	-6.5381	4.4951	-3.8672
H	-5.9991	2.6768	-2.6085
*