! UKS B3LYP ma-def2-SVP OPT NumFreq
%basis
NewGTO Sn "ma-def2-TZVP" end
end 

%scf
  maxiter 200
end

%pal 
	nprocs 16
end
* xyz 0 1
C	1.7099	4.5861	-5.2390
C	1.5497	2.6991	-6.4098
H	-1.3946	-4.4239	3.2476
C	1.2426	1.9496	-5.2916
H	-1.8742	-5.5017	5.2109
H	-1.6060	-2.2508	7.2237
H	-1.0863	-1.0351	5.3572
N	6.8171	1.6469	3.2526
H	-7.3231	-0.1081	-2.3400
H	-5.9209	-3.1921	-3.9218
N	1.6262	1.1807	-0.5844
C	-1.7721	-1.8114	1.7961
N	-0.9386	0.4331	-1.8102
C	-3.0852	-2.3703	1.8288
C	-3.6942	-2.0775	0.6682
N	1.7691	3.9884	-6.4148
O	-2.8781	1.7418	0.2972
C	2.4883	-0.5488	3.4609
Sn	0.0000	0.0000	0.0000
C	1.4406	-1.2920	3.8465
C	0.4418	-1.2224	2.8175
H	4.5608	2.3175	-0.4291
C	-0.8141	-1.8405	2.8230
H	3.8794	2.8950	2.8943
C	-1.1722	-2.5980	4.0668
C	-1.4202	-3.9485	4.0465
C	-1.7099	-4.5861	5.2390
C	-1.5497	-2.6991	6.4098
C	-5.4154	-0.3660	-1.8788
H	-5.3507	0.3995	-1.3558
C	-1.2426	-1.9496	5.2916
C	-6.6060	-0.6786	-2.4995
H	-0.5092	3.2496	2.9596
C	-5.8071	-2.4417	-3.3836
H	-0.9929	5.0475	4.3609
H	-2.9169	6.2300	4.0861
H	-3.9521	3.9186	1.0165
C	2.7883	1.3413	0.1261
N	-1.6262	-1.1807	0.5844
C	3.0362	0.8246	1.4210
N	0.9386	-0.4331	1.8102
C	2.2016	0.0048	2.1714
N	-1.7691	-3.9884	6.4148
O	2.8781	-1.7418	-0.2972
C	4.3584	1.1614	2.0288
N	-6.8171	-1.6469	-3.2526
C	4.5563	2.2683	2.7804
C	-1.9456	2.1823	0.9667
C	-2.1894	3.3815	1.8493
C	-1.2977	3.7303	2.8471
C	-1.5895	4.8130	3.6868
C	-2.7189	5.5125	3.5267
C	-3.5728	5.1541	2.5303
C	-3.3443	4.1248	1.6894
O	-0.7703	1.7229	0.9797
F	-4.7277	5.8703	2.4268
H	5.3507	-0.3995	1.3558
H	-4.5608	-2.3175	0.4291
H	-3.8794	-2.8950	-2.8943
H	0.5092	-3.2496	-2.9596
H	0.9929	-5.0475	-4.3609
H	2.9169	-6.2300	-4.0861
H	3.9521	-3.9186	-1.0165
C	-2.7883	-1.3413	-0.1261
C	-3.0362	-0.8246	-1.4210
C	-2.2016	-0.0048	-2.1714
H	7.3231	0.1081	2.3400
H	5.9209	3.1921	3.9218
H	3.4549	2.8533	-2.5328
H	-3.2689	0.4153	-3.9482
C	-4.3584	-1.1614	-2.0288
H	-1.3733	1.7692	-4.6418
C	-4.5563	-2.2683	-2.7804
H	1.3946	4.4239	-3.2476
H	1.8742	5.5017	-5.2109
H	1.6060	2.2508	-7.2237
H	1.0863	1.0351	-5.3572
C	1.9456	-2.1823	-0.9667
C	2.1894	-3.3815	-1.8493
C	1.2977	-3.7303	-2.8471
C	1.5895	-4.8130	-3.6868
C	1.7721	1.8114	-1.7961
C	2.7189	-5.5125	-3.5267
C	3.0852	2.3703	-1.8288
C	3.5728	-5.1541	-2.5303
C	3.6942	2.0775	-0.6682
C	3.3443	-4.1248	-1.6894
C	5.4154	0.3660	1.8788
C	6.6060	0.6786	2.4995
C	5.8071	2.4417	3.3836
C	-2.4883	0.5488	-3.4609
C	-1.4406	1.2920	-3.8465
O	0.7703	-1.7229	-0.9797
C	-0.4418	1.2224	-2.8175
C	0.8141	1.8405	-2.8230
F	4.7277	-5.8703	-2.4268
H	-3.4549	-2.8533	2.5328
H	3.2689	-0.4153	3.9482
H	1.3733	-1.7692	4.6418
C	1.1722	2.5980	-4.0668
C	1.4202	3.9485	-4.0465
*